###########################################################################
#
#                 Cambridge Crystallographic Data Centre
#                                CCDC #
###########################################################################
#
#  This CIF contains data generated directly from one or more entries in
#  the Cambridge Structural Database and will include bibliographic, 
#  chemical, crystal, experimental, refinement, and atomic coordinate data,
#  as available.
#     
#  Copyright  2010  The Cambridge Crystallographic Data Centre
# 
#  This CIF is provided on the understanding that it is used for bona fide 
#  research purposes only.  It may contain copyright material of the CCDC
#  or of third parties, and may not be copied or further disseminated in 
#  any form, whether machine-readable or not, except for the purpose of 
#  generating routine backup copies on your local computer system.
# 
#  For further information about the CCDC, data deposition and data 
#  retrieval see <www.ccdc.cam.ac.uk>. Bona fide researchers may freely 
#  download  Mercury and enCIFer from this site to visualise CIF-encoded 
#  structures and to carry out CIF format checking respectively.
#
###########################################################################

data_CSD_CIF_ACAGUG
_audit_creation_date 2001-10-17
_audit_creation_method CSD-ConQuest-V1
_database_code_CSD ACAGUG
_database_code_depnum_ccdc_archive 'CCDC 166475'
_chemical_formula_sum 'C64 H78 Cr2 O39 S32'
_chemical_formula_moiety
;
2(C10 H8 S8 1+),2(C10 H8 S8),4(H3 O1 1+),C12 H24 O6,2(C6 Cr1 O12 3-),5(H2 O1)
;
_journal_coden_Cambridge 182
_journal_year 2001
_journal_page_first 1462
_journal_name_full 'Chem.Commun. '
loop_
_publ_author_name
"S.Rashid"
"S.S.Turner"
"P.Day"
"M.E.Light"
"M.B.Hursthouse"
"S.Firth"
"R.J.H.Clark"
_chemical_name_systematic
;
tetrakis(\b''-4,5:4',5'-bis(Ethylenedithio)-1,1',3,3'-tetrathiafulvalene) 
tetrakis(oxonium) 18-crown-6 bis(tris(oxalato-O,O')-chromium(iii)) 
pentahydrate
;
_cell_volume   2479.562
_exptl_crystal_colour 'dark brown'
_exptl_crystal_density_diffrn 1.727
_exptl_crystal_description 'thin plate'
_diffrn_ambient_temperature 150
_refine_special_details
;
One of the water molecules is disordered over two sites.

;
#These two values have been output from a single CSD field.
_refine_ls_R_factor_gt 0.0605
_refine_ls_wR_factor_gt 0.0605
_symmetry_cell_setting triclinic
_symmetry_space_group_name_H-M 'P -1'
_symmetry_Int_Tables_number 2
loop_
_symmetry_equiv_pos_site_id
_symmetry_equiv_pos_as_xyz
1 x,y,z
2 -x,-y,-z
_cell_length_a 10.2212(5)
_cell_length_b 11.2266(5)
_cell_length_c 24.0998(15)
_cell_angle_alpha 88.433(3)
_cell_angle_beta 88.391(2)
_cell_angle_gamma 63.780(3)
_cell_formula_units_Z 1
loop_
_atom_type_symbol
_atom_type_radius_bond
C 0.68
H 0.23
Cr 1.35
O 0.68
S 1.02
loop_
_atom_site_label
_atom_site_type_symbol
_atom_site_fract_x
_atom_site_fract_y
_atom_site_fract_z
S1 S 0.5612(2) 0.58315(18) 0.05375(9)
S2 S 0.8928(2) 0.45681(19) -0.17216(10)
S3 S 0.8930(2) 0.67739(18) -0.02612(9)
S4 S 0.7515(2) 0.51499(18) -0.06088(9)
S5 S 0.7099(2) 0.73982(19) 0.08834(9)
S6 S 1.0621(3) 0.6495(2) -0.1292(1)
S7 S 0.9792(2) 1.14909(18) -0.07591(9)
S8 S 0.4606(2) 1.11111(19) 0.10660(9)
S9 S 0.8041(2) 1.20906(18) 0.04126(9)
S10 S 0.3690(2) 0.64433(18) 0.15401(9)
S11 S 0.8155(2) 1.00696(18) -0.11189(9)
S12 S 0.6375(2) 1.06947(18) 0.00493(9)
S13 S 0.5468(2) 0.82316(19) 0.19435(9)
S14 S 0.6643(2) 1.27261(18) 0.15287(9)
Cr1 Cr 0.47963(14) 1.31381(12) 0.34773(6)
S15 S 1.1505(2) 1.11085(18) -0.18048(10)
S16 S 0.9467(2) 0.94920(19) -0.22375(9)
C1 C 0.9444(7) 1.0173(6) -0.1593(3)
O1 O 0.6286(6) 1.3423(5) 0.3020(2)
C2 C 0.7660(8) 0.6156(6) -0.0111(3)
O2 O 0.0836(6) 1.5882(5) 0.3124(3)
C3 C 0.8475(7) 1.0941(6) -0.0598(3)
C4 C 0.6873(8) 0.6439(6) 0.0375(3)
C5 C 0.6742(7) 1.2002(6) 0.0885(3)
C6 C 0.5983(7) 1.1366(6) 0.0717(3)
C7 C 0.5030(8) 0.6685(7) 0.1163(3)
C8 C 0.8725(8) 0.5344(7) -0.1083(3)
C9 C 1.0847(8) 0.9784(7) -0.2624(3)
H1 H 1.18160 0.90490 -0.25430
H2 H 1.06780 0.97730 -0.30260
C10 C 1.0198(7) 1.0812(6) -0.1415(3)
C11 C 1.0429(9) 0.4736(8) -0.2028(4)
H3 H 1.13320 0.40570 -0.18590
H4 H 1.04740 0.45340 -0.24280
C12 C 0.9378(7) 0.6091(7) -0.0919(3)
C13 C 0.4901(7) 1.2879(6) 0.1782(3)
H5 H 0.47580 1.31820 0.21710
H6 H 0.41230 1.35710 0.15590
C14 C 0.7721(8) 1.1203(6) -0.0111(3)
O3 O 0.4939(6) 1.4478(5) 0.3949(2)
C15 C 0.4733(8) 1.1611(6) 0.1762(3)
H7 H 0.38440 1.17300 0.19760
H8 H 0.55780 1.08900 0.19450
C16 C 0.5706(8) 0.7394(7) 0.1320(3)
O4 O 0.6297(6) 1.1687(5) 0.3914(2)
O5 O 0.3226(6) 1.4535(5) 0.3054(2)
O6 O 0.0801(6) 1.4490(5) 0.4094(3)
O7 O 0.5827(6) 1.5980(5) 0.3930(3)
O8 O 0.4828(6) 1.1669(5) 0.3040(2)
C17 C 1.0427(11) 0.6033(8) -0.1979(4)
H9 H 0.95010 0.67190 -0.21300
H10 H 1.12300 0.60430 -0.22150
C18 C 0.6558(9) 1.4354(8) 0.3198(4)
C19 C 0.4598(11) 0.7467(8) 0.2394(4)
H11 H 0.51810 0.71620 0.27350
H12 H 0.36320 0.81720 0.25050
C20 C 0.1942(10) 1.4166(8) 0.3815(4)
O9 O 0.7629(7) 0.9483(5) 0.3889(3)
C21 C 0.571(1) 1.0492(8) 0.3229(4)
C22 C 0.4375(11) 0.6380(9) 0.2204(4)
H13 H 0.37040 0.62400 0.24730
H14 H 0.53220 0.55790 0.22240
O10 O 0.7404(6) 1.4746(6) 0.2986(3)
O11 O 0.5837(6) 0.9442(5) 0.3057(3)
C23 C 1.0865(9) 1.1094(7) -0.2491(3)
H15 H 0.98660 1.18200 -0.25260
H16 H 1.15000 1.12680 -0.27660
C24 C 0.5716(9) 1.5019(8) 0.3734(4)
C25 C 0.1957(10) 1.4952(8) 0.3287(4)
C26 C 0.6634(10) 1.0526(9) 0.3710(4)
O12 O 0.3175(6) 1.3196(5) 0.3949(2)
C27 C 0.7759(10) 1.0808(10) -0.3713(4)
H17 H 0.75740 1.07400 -0.33100
H18 H 0.69450 1.07900 -0.39190
C28 C 1.0586(12) 0.7470(9) -0.3978(5)
H19 H 1.07660 0.65690 -0.38460
H20 H 1.13870 0.76570 -0.38490
C29 C 0.8181(11) 1.3520(8) -0.5187(5)
H21 H 0.72900 1.35160 -0.53350
H22 H 0.81710 1.43880 -0.52820
C30 C 0.9160(11) 0.8471(9) -0.3754(4)
H23 H 0.83440 0.83870 -0.39330
H24 H 0.90880 0.83430 -0.33490
C31 C 0.7894(12) 1.2051(10) -0.3843(5)
H25 H 0.87930 1.20030 -0.36790
H26 H 0.70480 1.28190 -0.36830
C32 C 0.8211(13) 1.3323(10) -0.4583(6)
H27 H 0.74590 1.41310 -0.44070
H28 H 0.91750 1.31770 -0.44450
O13 O 0.9107(6) 0.9746(5) -0.3877(3)
O14 O 0.7945(7) 1.2212(6) -0.4431(3)
O15 O 1.0534(7) 0.7545(5) -0.4571(3)
O16 O 0.8043(7) 0.6821(6) 0.3690(3)
O17 O 0.2029(7) 1.2861(6) 0.5108(3)
O18 O 0.506(1) 1.7384(9) 0.4950(4)
O19 O 1.0701(16) 1.0051(12) -0.4800(6)
O20 O 0.7552(19) 0.9896(13) 0.4963(7)
O21? O 0.562(2) 0.999(2) 0.5151(9)
O15A O 0.9466(7) 1.2455(5) -0.5429(3)
C28A C 0.9414(12) 1.2530(9) -0.6022(5)
H19A H 0.92340 1.34310 -0.61540
H20A H 0.86130 1.23430 -0.61510
C30A C 1.0840(11) 1.1529(9) -0.6246(4)
H23A H 1.16560 1.16130 -0.60670
H24A H 1.09120 1.16570 -0.66510
O13A O 1.0893(6) 1.0254(5) -0.6123(3)
C27A C 1.2241(10) 0.9192(10) -0.6287(4)
H17A H 1.24260 0.92600 -0.66900
H18A H 1.30550 0.92100 -0.60810
C31A C 1.2106(12) 0.7949(10) -0.6157(5)
H25A H 1.12070 0.79970 -0.63210
H26A H 1.29520 0.71810 -0.63170
O14A O 1.2055(7) 0.7788(6) -0.5569(3)
C32A C 1.1789(13) 0.6677(10) -0.5417(6)
C29A C 1.1819(11) 0.6480(8) -0.4813(5)
H21A H 1.27100 0.64840 -0.46650
H22A H 1.18290 0.56120 -0.47180
H27A H 1.25410 0.58690 -0.55930
H28A H 1.08250 0.68230 -0.55550
#END

data_CSD_CIF_ACAKOF
_audit_creation_date 2005-02-04
_audit_creation_method CSD-ConQuest-V1
_database_code_CSD ACAKOF
_database_code_depnum_ccdc_archive 'CCDC 226838'
_chemical_formula_sum 'C16 H8 Fe1 N4 O2 S8'
_chemical_formula_moiety
;
C10 H8 S8 2+,C6 Fe1 N4 O2 2-
;
_journal_coden_Cambridge 615
_journal_volume 144
_journal_year 2004
_journal_page_first 51
_journal_name_full 'Synth.Met. '
loop_
_publ_author_name
"Xunwen Xiao"
"Hai Xu"
"Wei Xu"
"Deqing Zhang"
"Daoben Zhu"
_chemical_name_systematic
;
bis(Ethylenedithio)tetrathiafulvalenium dicarbonyl-tetracyano-iron(ii)
;
_cell_volume    550.467
_exptl_crystal_colour 'black'
_exptl_crystal_density_diffrn 1.812
_exptl_special_details
;
polymorph B

;
_exptl_crystal_description 'plate'
_diffrn_ambient_temperature 293
#These two values have been output from a single CSD field.
_refine_ls_R_factor_gt 0.0423
_refine_ls_wR_factor_gt 0.0423
_symmetry_cell_setting triclinic
_symmetry_space_group_name_H-M 'P -1'
_symmetry_Int_Tables_number 2
loop_
_symmetry_equiv_pos_site_id
_symmetry_equiv_pos_as_xyz
1 x,y,z
2 -x,-y,-z
_cell_length_a 6.1250(12)
_cell_length_b 9.2460(18)
_cell_length_c 10.147(2)
_cell_angle_alpha 77.16(3)
_cell_angle_beta 83.44(3)
_cell_angle_gamma 80.28(3)
_cell_formula_units_Z 1
loop_
_atom_type_symbol
_atom_type_radius_bond
C 0.68
H 0.23
Fe 1.34
N 0.68
O 0.68
S 1.02
loop_
_atom_site_label
_atom_site_type_symbol
_atom_site_fract_x
_atom_site_fract_y
_atom_site_fract_z
O1 O 0.4146(6) 0.5565(4) -0.1425(3)
Fe1 Fe 0.00000 0.50000 0.00000
N1 N 0.0873(6) 0.6156(4) 0.2472(4)
N2 N 0.1548(7) 0.1821(4) 0.1537(4)
S1 S 0.73782(18) 1.01895(12) 0.12962(10)
S2 S 0.40248(18) 0.83825(12) 0.16982(10)
S3 S 0.8866(2) 0.92064(14) 0.40214(11)
S4 S 0.4766(2) 0.69357(15) 0.44966(12)
C1 C 0.5331(6) 0.9678(4) 0.0674(3)
C2 C 0.7078(6) 0.9094(4) 0.2883(3)
C3 C 0.5458(6) 0.8221(4) 0.3068(4)
C4 C 0.8659(8) 0.7477(6) 0.5221(4)
H1 H 0.94310 0.66620 0.48090
H2 H 0.94420 0.74810 0.59990
C5 C 0.6532(9) 0.7163(7) 0.5689(5)
H3 H 0.57830 0.79640 0.61250
H4 H 0.66760 0.62500 0.63830
C6 C 0.2598(8) 0.5331(5) -0.0846(4)
C7 C 0.0551(6) 0.5750(4) 0.1546(4)
C8 C 0.1057(6) 0.3001(4) 0.0943(4)
C6A C -0.2598(8) 0.4669(5) 0.0846(4)
O1A O -0.4146(6) 0.4435(4) 0.1425(3)
C7A C -0.0551(6) 0.4250(4) -0.1546(4)
N1A N -0.0873(6) 0.3844(4) -0.2472(4)
C8A C -0.1057(6) 0.6999(4) -0.0943(4)
N2A N -0.1548(7) 0.8179(4) -0.1537(4)
C1A C 0.4669(6) 1.0322(4) -0.0674(3)
S1A S 0.26218(18) 0.98105(12) -0.12962(10)
C2A C 0.2922(6) 1.0906(4) -0.2883(3)
S3A S 0.1134(2) 1.07936(14) -0.40214(11)
C4A C 0.1341(8) 1.2523(6) -0.5221(4)
H1A H 0.05690 1.33380 -0.48090
H2A H 0.05580 1.25190 -0.59990
C5A C 0.3468(9) 1.2837(7) -0.5689(5)
S4A S 0.5234(2) 1.30643(15) -0.44966(12)
C3A C 0.4542(6) 1.1779(4) -0.3068(4)
S2A S 0.59752(18) 1.16175(12) -0.16982(10)
H3A H 0.42170 1.20360 -0.61250
H4A H 0.33240 1.37500 -0.63830
#END

data_CSD_CIF_ACAKOF01
_audit_creation_date 2005-02-04
_audit_creation_method CSD-ConQuest-V1
_database_code_CSD ACAKOF01
_database_code_depnum_ccdc_archive 'CCDC 226837'
_chemical_formula_sum 'C16 H8 Fe1 N4 O2 S8'
_chemical_formula_moiety
;
C10 H8 S8 2+,C6 Fe1 N4 O2 2-
;
_journal_coden_Cambridge 615
_journal_volume 144
_journal_year 2004
_journal_page_first 51
_journal_name_full 'Synth.Met. '
loop_
_publ_author_name
"Xunwen Xiao"
"Hai Xu"
"Wei Xu"
"Deqing Zhang"
"Daoben Zhu"
_chemical_name_systematic
;
bis(Ethylenedithio)tetrathiafulvalenium dicarbonyl-tetracyano-iron(ii)
;
_cell_volume    556.572
_exptl_crystal_colour 'black'
_exptl_crystal_density_diffrn 1.792
_exptl_special_details
;
polymorph A

;
_exptl_crystal_description 'plate'
_diffrn_ambient_temperature 293
#These two values have been output from a single CSD field.
_refine_ls_R_factor_gt 0.0378
_refine_ls_wR_factor_gt 0.0378
_symmetry_cell_setting triclinic
_symmetry_space_group_name_H-M 'P -1'
_symmetry_Int_Tables_number 2
loop_
_symmetry_equiv_pos_site_id
_symmetry_equiv_pos_as_xyz
1 x,y,z
2 -x,-y,-z
_cell_length_a 6.8695(14)
_cell_length_b 8.5523(17)
_cell_length_c 9.865(2)
_cell_angle_alpha 96.78(3)
_cell_angle_beta 102.20(3)
_cell_angle_gamma 96.65(3)
_cell_formula_units_Z 1
loop_
_atom_type_symbol
_atom_type_radius_bond
C 0.68
H 0.23
Fe 1.34
N 0.68
O 0.68
S 1.02
loop_
_atom_site_label
_atom_site_type_symbol
_atom_site_fract_x
_atom_site_fract_y
_atom_site_fract_z
O1 O 0.1821(5) 0.6604(4) 0.5879(3)
Fe1 Fe 0.50000 0.50000 0.50000
S1 S -0.44902(15) -0.24520(13) 0.03387(11)
S2 S -0.18799(14) -0.47098(13) 0.10907(10)
S3 S -0.14424(16) 0.03631(13) 0.14560(11)
S4 S 0.17355(14) -0.23995(13) 0.22815(11)
N1 N 0.2146(5) 0.3749(4) 0.2120(3)
N2 N 0.3550(5) 0.2005(4) 0.6144(3)
C1 C -0.4209(5) -0.4356(4) 0.0328(3)
C2 C -0.2058(5) -0.1686(5) 0.1111(4)
C3 C -0.0795(5) -0.2753(5) 0.1469(3)
C4 C 0.0354(5) 0.0429(4) 0.3082(4)
H1 H 0.07540 0.15260 0.35250
H2 H -0.02780 -0.01470 0.37030
C5 C 0.2183(6) -0.0274(4) 0.2890(4)
H3 H 0.31690 -0.00670 0.37770
H4 H 0.27590 0.02630 0.22220
C6 C 0.3015(6) 0.5986(5) 0.5518(4)
C7 C 0.3218(6) 0.4195(4) 0.3183(4)
C8 C 0.4081(6) 0.3114(5) 0.5716(4)
C6A C 0.6985(6) 0.4014(5) 0.4482(4)
O1A O 0.8179(5) 0.3396(4) 0.4121(3)
C7A C 0.6782(6) 0.5805(4) 0.6817(4)
N1A N 0.7854(5) 0.6251(4) 0.7880(3)
C8A C 0.5919(6) 0.6886(5) 0.4284(4)
N2A N 0.6450(5) 0.7995(4) 0.3856(3)
C1A C -0.5791(5) -0.5644(4) -0.0328(3)
S1A S -0.55098(15) -0.75480(13) -0.03387(11)
C2A C -0.7942(5) -0.8314(5) -0.1111(4)
S3A S -0.85576(16) -1.03631(13) -0.14560(11)
C4A C -1.0354(5) -1.0429(4) -0.3082(4)
H1A H -1.07540 -1.15260 -0.35250
H2A H -0.97220 -0.98530 -0.37030
C5A C -1.2183(6) -0.9726(4) -0.2890(4)
S4A S -1.17355(14) -0.76005(13) -0.22815(11)
C3A C -0.9205(5) -0.7247(5) -0.1469(3)
S2A S -0.81201(14) -0.52902(13) -0.10907(10)
H3A H -1.31690 -0.99330 -0.37770
H4A H -1.27590 -1.02630 -0.22220
#END

data_CSD_CIF_ACAXUX
_audit_creation_date 2001-10-17
_audit_creation_method CSD-ConQuest-V1
_database_code_CSD ACAXUX
_database_code_depnum_ccdc_archive 'CCDC 171559'
_chemical_formula_sum 'C23.5 H20 Cl4 Ga1 S16'
_chemical_formula_moiety
;
C10 H8 S8 1+,C10 H8 S8,Cl4 Ga1 1-,0.5(C7 H8)
;
_journal_coden_Cambridge 41
_journal_volume 46
_journal_year 2001
_journal_page_first 259
_journal_name_full 'Kristallografiya(Russ.)(Crystallogr.Rep.) '
loop_
_publ_author_name
"L.V.Zorina"
"S.S.Khasanov"
"B.Zh.Narymbetov"
"R.P.Shibaeva"
"A.I.Kotov"
"E.B.Yagubskii"
_chemical_name_systematic
;
bis(bis(Ethylenethio)tetrathiafulvalene) tetrachloro-gallium toluene solvate
;
_cell_volume   7538.779
_exptl_crystal_colour 'colorless'
_exptl_crystal_density_diffrn 1.809
_exptl_crystal_preparation 'abs. ethanol'
_diffrn_ambient_temperature ?
_diffrn_special_details
;
The study was carried out at room temperature,in the range 283-303K

;
_refine_special_details
;
The CH2-CH2 fragments of one of the independent BEDT-TTF molecules are 
disordered over two positions each, the C(7A), C(8A); C(7B), C(8B); C(9A), 
C(10A) and C(9B), C(10B) positions were refined with the s.o.f.s equal to 
0.52, 0.48, 0.72 and 0.28 respectively. The Me- group of toluene sovlate 
molecule is disordered over 1 and 4 positions, related by the inversion 
centre, and were refined with the s.o.f. equal to 0.5.
;
#These two values have been output from a single CSD field.
_refine_ls_R_factor_gt 0.0307
_refine_ls_wR_factor_gt 0.0307
_symmetry_cell_setting monoclinic
_symmetry_space_group_name_H-M 'I 2/c'
_symmetry_Int_Tables_number 15
loop_
_symmetry_equiv_pos_site_id
_symmetry_equiv_pos_as_xyz
1 x,y,z
2 1/2+x,1/2+y,1/2+z
3 x,-y,1/2+z
4 1/2+x,1/2-y,z
5 -x,-y,-z
6 -1/2-x,-1/2-y,-1/2-z
7 -x,y,-1/2-z
8 -1/2-x,-1/2+y,-z
_cell_length_a 31.757(2)
_cell_length_b 6.8063(3)
_cell_length_c 34.879(2)
_cell_angle_alpha 90
_cell_angle_beta 90.453(4)
_cell_angle_gamma 90
_cell_formula_units_Z 8
loop_
_atom_type_symbol
_atom_type_radius_bond
C 0.68
H 0.23
Cl 0.99
Ga 1.22
S 1.02
loop_
_atom_site_label
_atom_site_type_symbol
_atom_site_fract_x
_atom_site_fract_y
_atom_site_fract_z
S1 S 0.17545(4) 0.7663(2) 0.77932(3)
S2 S 0.18946(4) 1.1805(2) 0.76116(3)
S3 S 0.21051(4) 0.6448(2) 0.69589(3)
S4 S 0.22959(4) 1.0570(2) 0.68012(3)
S5 S 0.13722(4) 0.8377(2) 0.85465(3)
S6 S 0.15175(5) 1.3333(2) 0.83143(4)
S7 S 0.23819(5) 0.4963(2) 0.62143(4)
S8 S 0.25968(4) 0.9887(2) 0.60142(3)
C1 C 0.19346(13) 0.9376(6) 0.74654(11)
C2 C 0.20972(12) 0.8860(6) 0.71175(11)
C3 C 0.15867(13) 0.9378(6) 0.81322(11)
C4 C 0.16474(14) 1.1282(7) 0.80438(11)
C5 C 0.23310(13) 0.6978(6) 0.65147(12)
C6 C 0.24122(13) 0.8857(7) 0.64403(11)
C7 C 0.1191(4) 1.0531(37) 0.8810(6)
H1 H 0.0918(4) 1.0922(37) 0.8710(6)
H2 H 0.1158(4) 1.0182(37) 0.9077(6)
C8 C 0.1491(4) 1.2257(21) 0.8782(3)
H3 H 0.1771(4) 1.1823(21) 0.8858(3)
H4 H 0.1404(4) 1.3257(21) 0.8963(3)
C9? C 0.1409(6) 1.0440(44) 0.8853(6)
H5? H 0.1260(6) 1.0145(44) 0.9087(6)
H6? H 0.1703(6) 1.0632(44) 0.8921(6)
C10? C 0.1238(5) 1.2362(26) 0.8691(4)
H7? H 0.1233(5) 1.3325(26) 0.8896(4)
H8? H 0.0950(5) 1.2149(26) 0.8607(4)
C11 C 0.2565(3) 0.6070(17) 0.5768(3)
H9 H 0.2870(3) 0.6127(17) 0.5777(3)
H10 H 0.2486(3) 0.5209(17) 0.5558(3)
C12 C 0.2399(3) 0.8120(16) 0.5680(3)
H11 H 0.2094(3) 0.8109(16) 0.5689(3)
H12 H 0.2481(3) 0.8493(16) 0.5423(3)
C13? C 0.2321(7) 0.606(4) 0.5766(7)
H13? H 0.2361(7) 0.5087(40) 0.5566(7)
H14? H 0.2039(7) 0.6589(40) 0.5740(7)
C14? C 0.2640(9) 0.7691(54) 0.5722(8)
H15? H 0.2633(9) 0.8102(54) 0.5455(8)
H16? H 0.2916(9) 0.7131(54) 0.5770(8)
S9 S 0.45190(5) 0.1182(2) 0.21568(3)
S10 S 0.46592(4) 0.5316(2) 0.19682(3)
S11 S 0.41229(4) 0.2417(2) 0.29632(3)
S12 S 0.42106(4) 0.6582(2) 0.27636(3)
S13 S 0.48345(6) -0.0373(2) 0.14313(4)
S14 S 0.49887(5) 0.4573(2) 0.11959(4)
S15 S 0.37421(4) 0.3147(2) 0.37178(3)
S16 S 0.38075(5) 0.8081(2) 0.34539(4)
C15 C 0.44625(14) 0.3613(7) 0.22912(12)
C16 C 0.42821(13) 0.4147(7) 0.26288(12)
C17 C 0.47315(14) 0.1699(7) 0.17082(13)
C18 C 0.47888(14) 0.3581(7) 0.16184(12)
C19 C 0.39292(13) 0.4116(6) 0.32918(12)
C20 C 0.39657(14) 0.6032(7) 0.31959(12)
C21 C 0.5184(2) 0.0643(10) 0.1090(2)
H17 H 0.5193(14) -0.0360(68) 0.0922(13)
H18 H 0.5460(24) 0.102(11) 0.1198(21)
C22 C 0.5016(2) 0.2429(10) 0.0896(2)
H19 H 0.5174(16) 0.2837(75) 0.0717(14)
H20 H 0.4681(27) 0.221(12) 0.0810(21)
C23 C 0.3811(2) 0.5267(9) 0.4024(2)
H21 H 0.3729(16) 0.4855(75) 0.4245(15)
H22 H 0.4145(23) 0.5879(97) 0.4005(18)
C24 C 0.3599(2) 0.7050(9) 0.3882(2)
H23 H 0.3640(15) 0.8092(77) 0.4053(14)
H24 H 0.3298(27) 0.624(13) 0.3820(23)
Ga1 Ga 0.35175(2) 0.97312(8) 0.50537(1)
Cl1 Cl 0.39303(5) 1.0724(2) 0.46005(4)
Cl2 Cl 0.31108(5) 1.2107(2) 0.52247(4)
Cl3 Cl 0.38796(5) 0.8792(3) 0.55493(4)
Cl4 Cl 0.31466(5) 0.7314(2) 0.48343(5)
C25? C 0.4736(4) 0.361(2) -0.0113(3)
H25? H 0.4570(4) 0.2556(20) -0.0192(3)
C26? C 0.4547(4) 0.5047(23) 0.0055(3)
H26? H 0.4257(4) 0.5125(23) 0.0086(3)
C27? C 0.4841(6) 0.6513(17) 0.0187(2)
C28? C 0.4662(7) 0.7622(26) 0.0327(5)
H27? H 0.4370(7) 0.7253(26) 0.0327(5)
H28? H 0.4694(7) 0.8844(26) 0.0192(5)
H29? H 0.4761(7) 0.7771(26) 0.0586(5)
#END

data_CSD_CIF_ACIJIG
_audit_creation_date 2006-07-27
_audit_creation_method CSD-ConQuest-V1
_database_code_CSD ACIJIG
_database_code_depnum_ccdc_archive 'CCDC 601936'
_chemical_formula_sum 'C30 H24 F12 S24 Sb2'
_chemical_formula_moiety
;
2(C10 H8 S8 1+),C10 H8 S8,F12 Sb2 2-
;
_journal_coden_Cambridge 1110
_journal_volume 28
_journal_year 2005
_journal_page_first 25
_journal_name_full 'Bull.Materials Science '
loop_
_publ_author_name
"G.K.R.Senadeera"
"T.Mori"
_chemical_name_systematic
;
tris(bis(Ethylenedithio)tetrathiafulvalene) 
bis(\m~2~-fluoro)-decafluoro-di-antimonate
;
_cell_volume   1263.560
_exptl_crystal_colour 'black'
_exptl_crystal_density_diffrn 2.136
_exptl_special_details
;
Several coordinate values appear to be in error. z(S3) is 1.0606 not 1.1803, 
y(S7) is 0.8893 not 0.9893, z(F1) is 0.5880 not 1.0880, xyz(S5) is 0.6446 
1.0542 1.0801 not 0.8446 0.9008 1.0301
;
_diffrn_ambient_temperature 288
#These two values have been output from a single CSD field.
_refine_ls_R_factor_gt 0.057
_refine_ls_wR_factor_gt 0.057
_symmetry_cell_setting triclinic
_symmetry_space_group_name_H-M 'P -1'
_symmetry_Int_Tables_number 2
loop_
_symmetry_equiv_pos_site_id
_symmetry_equiv_pos_as_xyz
1 x,y,z
2 -x,-y,-z
_cell_length_a 8.670(2)
_cell_length_b 8.664(2)
_cell_length_c 16.842(5)
_cell_angle_alpha 89.29(2)
_cell_angle_beta 90.71(3)
_cell_angle_gamma 92.67(1)
_cell_formula_units_Z 1
loop_
_atom_type_symbol
_atom_type_radius_bond
C 0.68
F 0.15
S 1.02
Sb 1.56
loop_
_atom_site_label
_atom_site_type_symbol
_atom_site_fract_x
_atom_site_fract_y
_atom_site_fract_z
Sb1 Sb 0.85003(8) 0.35010(8) 0.49999(4)
S1 S 1.1005(3) 0.6916(3) 1.1802(1)
S2 S 0.8087(3) 0.3994(3) 1.1802(1)
S3 S 0.9559(2) 0.7890(2) 1.0606(1)
S4 S 0.7111(2) 0.5443(2) 1.0301(1)
S5 S 0.6446(2) 1.05420 1.0801(1)
S6 S 0.5991(2) 0.6556(2) 0.8554(1)
S7 S 0.8008(3) 0.8893(3) 0.8555(1)
S8 S 0.5106(3) 0.6995(3) 0.6865(1)
S9 S 0.7940(3) 0.9984(4) 0.6865(1)
S10 S 0.5016(4) 0.7057(3) 1.2474(2)
S11 S 0.6742(3) 1.0684(3) 1.2474(2)
S12 S 0.4315(3) 0.8261(3) 1.0879(1)
F1 F 0.906(2) 0.251(2) 0.5880(1)
F2 F 0.750(2) 0.408(2) 0.4110(5)
F3 F 0.9643(10) 0.2217(10) 0.5637(5)
F4 F 0.720(1) 0.4658(10) 0.4373(5)
F5 F 0.692(1) 0.196(1) 0.5001(8)
F6 F 1.026(4) 0.496(4) 0.452(2)
C1 C 1.0572(2) 0.555(2) 1.2528(7)
C2 C 0.946(2) 0.444(1) 1.2529(7)
C3 C 0.9543(8) 0.6572(8) 1.1097(4)
C4 C 0.8415(8) 0.5459(8) 1.1096(4)
C5 C 0.8006(8) 0.7002(8) 0.9793(4)
C6 C 0.7523(8) 0.7474(8) 0.9068(4)
C7 C 0.7409(9) 0.8722(8) 0.7659(4)
C8 C 0.6282(8) 0.7597(8) 0.7662(4)
C9 C 0.731(2) 0.876(2) 0.6050(6)
C10 C 0.624(2) 0.768(2) 0.6052(6)
C11 C 0.720(2) 0.893(2) 1.3292(6)
C12 C 0.606(2) 0.780(2) 1.3294(6)
C13 C 0.6589(9) 0.9553(9) 1.1732(4)
C14 C 0.5443(9) 0.8416(9) 1.1733(4)
C15 C 0.5234(9) 0.9767(9) 1.0367(4)
Sb1A Sb 1.14997(8) 0.64990(8) 0.50001(4)
S5A S 0.3554(2) 0.94580 0.9199(1)
S10A S 0.4984(4) 1.2943(3) 0.7526(2)
S11A S 0.3258(3) 0.9316(3) 0.7526(2)
S12A S 0.5685(3) 1.1739(3) 0.9121(1)
F1A F 1.094(2) 0.749(2) 0.4120(1)
F2A F 1.250(2) 0.592(2) 0.5890(5)
F3A F 1.0357(10) 0.7783(10) 0.4363(5)
F4A F 1.280(1) 0.5342(10) 0.5627(5)
F5A F 1.308(1) 0.804(1) 0.4999(8)
F6A F 0.974(4) 0.504(4) 0.548(2)
C11A C 0.280(2) 1.107(2) 0.6708(6)
C12A C 0.394(2) 1.220(2) 0.6706(6)
C13A C 0.3411(9) 1.0447(9) 0.8268(4)
C14A C 0.4557(9) 1.1584(9) 0.8267(4)
C15A C 0.4766(9) 1.0233(9) 0.9633(4)
#END

data_CSD_CIF_ACUJIR
_audit_creation_date 2002-02-27
_audit_creation_method CSD-ConQuest-V1
_database_code_CSD ACUJIR
_database_code_depnum_ccdc_archive 'CCDC 172093'
_chemical_formula_sum 'C30 H12 Cl26 Mo6 S24'
_chemical_formula_moiety
;
2(C10 H4 Cl4 S8 1+),Cl14 Mo6 2-,C10 H4 Cl4 S8
;
_journal_coden_Cambridge 207
_journal_year 2001
_journal_page_first 3399
_journal_name_full 'J.Chem.Soc.,Perkin Trans.1 '
loop_
_publ_author_name
"O.J.Dautel"
"M.Fourmigue"
_chemical_name_systematic
;
tris(bis(1,2-Dichloroethylendithio)tetrathiafulvalene) 
octakis(\m~3~-chloro)-hexachloro-hexa-molybdenum
;
_cell_volume   1870.146
_exptl_crystal_colour 'black'
_exptl_crystal_density_diffrn 2.34
_exptl_crystal_description 'plate'
_diffrn_ambient_temperature 293
_refine_special_details
;
The ethylene bridges in one of the molecules in the unit cell are equally 
disordered over two sets of positions.
;
#These two values have been output from a single CSD field.
_refine_ls_R_factor_gt 0.0424
_refine_ls_wR_factor_gt 0.0424
_symmetry_cell_setting triclinic
_symmetry_space_group_name_H-M 'P -1'
_symmetry_Int_Tables_number 2
loop_
_symmetry_equiv_pos_site_id
_symmetry_equiv_pos_as_xyz
1 x,y,z
2 -x,-y,-z
_cell_length_a 10.217(2)
_cell_length_b 13.028(3)
_cell_length_c 14.255(3)
_cell_angle_alpha 93.10(3)
_cell_angle_beta 97.24(3)
_cell_angle_gamma 95.29(3)
_cell_formula_units_Z 1
loop_
_atom_type_symbol
_atom_type_radius_bond
C 0.68
Cl 0.99
Mo 1.47
S 1.02
loop_
_atom_site_label
_atom_site_type_symbol
_atom_site_fract_x
_atom_site_fract_y
_atom_site_fract_z
Mo1 Mo 0.14835(7) 0.93852(5) 0.97356(4)
Mo2 Mo 0.06273(7) 1.00817(5) 1.12761(4)
Mo3 Mo 0.08793(7) 1.12806(5) 0.98936(4)
Cl1 Cl 0.1626(2) 1.05669(14) 0.84436(13)
Cl2 Cl 0.2828(2) 1.07090(15) 1.08570(13)
Cl3 Cl -0.0020(2) 0.81303(14) 0.86467(13)
Cl4 Cl 0.1142(2) 0.82690(14) 1.10591(13)
Cl5 Cl 0.3431(2) 0.85735(16) 0.94008(16)
Cl6 Cl 0.1465(2) 1.02566(17) 1.29653(13)
Cl7 Cl 0.2068(2) 1.29609(14) 0.97521(14)
S1 S 0.0907(3) 0.4997(2) 0.12716(18)
S2 S 0.3025(2) 0.37975(18) 0.20719(16)
S3 S 0.5463(2) 0.25106(19) 0.26813(15)
S4 S 0.7890(3) 0.1460(2) 0.30991(15)
S5 S 0.6541(3) 0.0827(2) 0.51664(18)
S6 S 0.4334(2) 0.19321(17) 0.43701(15)
S7 S 0.1772(2) 0.31557(18) 0.36837(16)
S8 S -0.0604(3) 0.4247(2) 0.3260(2)
Cl8 Cl 0.0010(4) 0.6504(2) 0.2822(3)
Cl9 Cl -0.1806(7) 0.3960(5) 0.0964(5)
Cl10? Cl -0.2132(8) 0.3899(5) 0.1348(6)
Cl11 Cl 0.8129(4) -0.0682(2) 0.4174(2)
Cl12 Cl 0.9085(4) 0.2489(3) 0.5034(2)
C1 C 0.3109(9) 0.3121(6) 0.3071(5)
C2 C 0.4178(9) 0.2580(6) 0.3346(6)
C3 C 0.6366(8) 0.1747(6) 0.3422(5)
C4? C 0.862(3) 0.0857(19) 0.4119(17)
C5 C 0.8856(15) 0.1384(12) 0.4281(10)
C6 C 0.8090(16) 0.0484(12) 0.4793(11)
C7? C 0.833(3) 0.103(2) 0.5048(18)
C8 C 0.5838(8) 0.1493(6) 0.4215(6)
C9 C 0.0897(10) 0.3949(7) 0.2929(6)
C10 C -0.141(3) 0.4791(19) 0.2216(18)
C11? C -0.092(2) 0.5282(15) 0.2467(14)
C12 C -0.041(2) 0.5499(16) 0.1802(16)
C13? C -0.082(2) 0.5043(15) 0.1467(14)
C14 C 0.1496(9) 0.4244(6) 0.2181(5)
S9 S 0.3357(3) 0.2982(2) 0.7481(2)
S10 S 0.3628(3) 0.4406(2) 0.59516(19)
S11 S 0.6419(2) 0.41171(19) 0.58108(17)
S12 S 0.6707(3) 0.2737(3) 0.7363(2)
Cl13 Cl 0.4892(4) 0.0908(2) 0.7721(3)
Cl14 Cl 0.5433(4) 0.3976(3) 0.9044(3)
C15 C 0.5003(9) 0.4697(6) 0.5373(6)
C16 C 0.5648(9) 0.3431(7) 0.6653(6)
C17 C 0.5673(12) 0.2202(11) 0.8181(9)
C18 C 0.4602(12) 0.2698(10) 0.8409(8)
C19 C 0.4365(9) 0.3549(7) 0.6699(6)
Mo1A Mo -0.14835(7) 1.06148(5) 1.02644(4)
Mo2A Mo -0.06273(7) 0.99183(5) 0.87239(4)
Mo3A Mo -0.08793(7) 0.87194(5) 1.01064(4)
Cl2A Cl -0.2828(2) 0.92910(15) 0.91430(13)
Cl1A Cl -0.1626(2) 0.94331(14) 1.15564(13)
Cl4A Cl -0.1142(2) 1.17310(14) 0.89409(13)
Cl3A Cl 0.0020(2) 1.18697(14) 1.13533(13)
Cl7A Cl -0.2068(2) 0.70391(14) 1.02479(14)
Cl5A Cl -0.3431(2) 1.14265(16) 1.05992(16)
Cl6A Cl -0.1465(2) 0.97434(17) 0.70347(13)
C15A C 0.4997(9) 0.5303(6) 0.4627(6)
S10A S 0.6372(3) 0.5594(2) 0.40484(19)
C19A C 0.5635(9) 0.6451(7) 0.3301(6)
S9A S 0.6643(3) 0.7018(2) 0.2519(2)
C18A C 0.5398(12) 0.7302(10) 0.1591(8)
Cl14A Cl 0.4567(4) 0.6024(3) 0.0956(3)
C17A C 0.4327(12) 0.7798(11) 0.1819(9)
S12A S 0.3293(3) 0.7263(3) 0.2637(2)
C16A C 0.4352(9) 0.6569(7) 0.3347(6)
S11A S 0.3581(2) 0.58829(19) 0.41892(17)
Cl13A Cl 0.5108(4) 0.9092(2) 0.2279(3)
#END

data_CSD_CIF_AFEZAM
_audit_creation_date 2002-07-24
_audit_creation_method CSD-ConQuest-V1
_database_code_CSD AFEZAM
_chemical_formula_sum 'C61 H44 Cr1 N6 S50'
_chemical_formula_moiety
;
3(C10 H8 S8 1+),2.5(C10 H8 S8),C6 Cr1 N6 S6 3-
;
_journal_coden_Cambridge 615
_journal_volume 102
_journal_year 1999
_journal_page_first 1755
_journal_name_full 'Synth.Met. '
loop_
_publ_author_name
"F.Berezovsky"
"S.Triki"
"J.Sala Pala"
"J.R.Galan-Mascaros"
"C.J.Gomez-Garcia"
"E.Coronado"
_chemical_name_systematic
;
undecakis(bis(Ethylenedithio)-tetrathiafulvalene) 
bis(hexakis(isothiocyanato)-chromium(iii))
;
_cell_volume   2527.444
_exptl_special_details
;
No reply to request for data

;
_diffrn_ambient_temperature ?
_diffrn_special_details
;
The study was carried out at room temperature,in the range 283-303K

;
#These two values have been output from a single CSD field.
_refine_ls_R_factor_gt 0.083
_refine_ls_wR_factor_gt 0.083
_symmetry_cell_setting triclinic
_symmetry_space_group_name_H-M 'P -1'
_symmetry_Int_Tables_number 2
_cell_length_a 11.428(6)
_cell_length_b 11.853(7)
_cell_length_c 21.964(8)
_cell_angle_alpha 74.64(5)
_cell_angle_beta 78.64(6)
_cell_angle_gamma 62.16(2)
_cell_formula_units_Z 1
#END

data_CSD_CIF_AFIBAS
_audit_creation_date 2002-07-24
_audit_creation_method CSD-ConQuest-V1
_database_code_CSD AFIBAS
_chemical_formula_sum 'C22 H8 Au1 N8 S12'
_chemical_formula_moiety
;
C10 H8 S8 1+,C12 Au1 N8 S4 1-
;
_journal_coden_Cambridge 615
_journal_volume 102
_journal_year 1999
_journal_page_first 1751
_journal_name_full 'Synth.Met. '
loop_
_publ_author_name
"D.Belo"
"J.Morgado"
"E.B.Lopes"
"I.C.Santos"
"S.Rabaca"
"M.T.Duarte"
"V.Gama"
"R.T.Henriques"
"M.Almeida"
_chemical_name_systematic
;
bis(Ethylenedithio)tetrathiafulvalene 
bis(2,3-dicyano-5,6-dimercaptopyrazine)-gold
;
_cell_volume   2974.164
_exptl_special_details
;
No reply to request for data

;
_diffrn_ambient_temperature ?
_diffrn_special_details
;
The study was carried out at room temperature,in the range 283-303K

;
_symmetry_cell_setting monoclinic
_symmetry_space_group_name_H-M 'P 21/c'
_symmetry_Int_Tables_number 14
_cell_length_a 16.23
_cell_length_b 7.557
_cell_length_c 24.655
_cell_angle_alpha 90
_cell_angle_beta 100.41
_cell_angle_gamma 90
_cell_formula_units_Z 4
#END

data_CSD_CIF_AHUKET
_audit_creation_date 2003-11-05
_audit_creation_method CSD-ConQuest-V1
_database_code_CSD AHUKET
_database_code_depnum_ccdc_archive 'CCDC 136804'
_database_code_depnum_ccdc_journal 1145/273
_chemical_formula_sum 'C40 H28 Br1 I2 S24'
_chemical_formula_moiety
;
2(C10 H8 S8),C10 H8 S8 1+,C10 H4 I2,Br1 1-
;
_journal_coden_Cambridge 1145
_journal_volume 11
_journal_year 2001
_journal_page_first 1034
_journal_name_full 'J.Mater.Chem. '
loop_
_publ_author_name
"H.M.Yamamoto"
"R.Maeda"
"J.-I.Yamaura"
"R.Kato"
_chemical_name_systematic
;
tris(bis(Ethylenedithio)tetrathiafulvalene) 1,4-bis(iodoethynyl)benzene 
bromide
;
_cell_volume   1371.469
_exptl_crystal_colour 'black'
_exptl_crystal_density_diffrn 1.951
_exptl_special_details
;
isostructural with the bromide, difluoro and tetradeutero chlorides and 
bromides
;
_exptl_crystal_description 'plate'
_diffrn_ambient_temperature 293.2
#These two values have been output from a single CSD field.
_refine_ls_R_factor_gt 0.083
_refine_ls_wR_factor_gt 0.083
_symmetry_cell_setting triclinic
_symmetry_space_group_name_H-M 'P -1'
_symmetry_Int_Tables_number 2
loop_
_symmetry_equiv_pos_site_id
_symmetry_equiv_pos_as_xyz
1 x,y,z
2 -x,-y,-z
_cell_length_a 10.187(1)
_cell_length_b 15.420(2)
_cell_length_c 9.418(1)
_cell_angle_alpha 99.83(1)
_cell_angle_beta 106.89(1)
_cell_angle_gamma 77.21(1)
_cell_formula_units_Z 1
loop_
_atom_type_symbol
_atom_type_radius_bond
C 0.68
H 0.23
Br 1.21
I 1.40
S 1.02
loop_
_atom_site_label
_atom_site_type_symbol
_atom_site_fract_x
_atom_site_fract_y
_atom_site_fract_z
I1 I -0.15819(4) 1.00186(2) 0.64480(4)
Br1 Br 0.00000 1.00000 1.00000
S1 S 0.5429(1) 0.58417(9) 0.7143(1)
S2 S 0.2855(1) 0.57244(9) 0.4724(2)
S3 S 0.4214(2) 0.7467(1) 0.8813(2)
S4 S 0.1152(2) 0.7307(1) 0.5974(2)
S5 S 0.8728(1) 0.58340(9) 1.3853(1)
S6 S 0.6192(1) 0.57465(9) 1.1374(2)
S7 S 1.0471(1) 0.42571(9) 1.2013(2)
S8 S 0.7943(1) 0.42097(9) 0.9518(1)
S9 S 0.7541(2) 0.7472(1) 1.5490(2)
S10 S 0.4510(2) 0.7363(1) 1.2611(2)
S11 S 1.2147(2) 0.2654(1) 1.0736(2)
S12 S 0.9118(2) 0.2613(1) 0.7801(2)
C1 C 0.4638(5) 0.5325(3) 0.5395(5)
C2 C 0.3952(5) 0.6665(3) 0.7243(5)
C3 C 0.2778(5) 0.6604(3) 0.6153(6)
C4 C 0.2459(8) 0.7973(8) 0.880(1)
C5 C 0.1371(10) 0.790(1) 0.774(1)
C6 C 0.7965(5) 0.5336(3) 1.2077(5)
C7 C 0.8699(5) 0.4685(3) 1.1305(5)
C8 C 0.7261(5) 0.6676(3) 1.3928(5)
C9 C 0.6108(5) 0.6633(3) 1.2803(5)
C10 C 1.0550(5) 0.3393(3) 1.0556(5)
C11 C 0.9393(5) 0.3368(3) 0.9414(5)
C12 C 0.5832(7) 0.8154(5) 1.5361(8)
C13 C 0.4620(7) 0.7710(5) 1.4535(7)
C14 C 1.2025(6) 0.2301(4) 0.8787(7)
C15 C 1.0781(6) 0.1869(4) 0.8016(7)
C16 C -0.5632(6) 1.0037(4) 0.1146(6)
C17 C -0.4196(5) 0.9996(3) 0.1486(6)
C18 C -0.3580(6) 0.9963(4) 0.0336(6)
C19 C -0.3343(5) 1.0005(3) 0.3085(6)
C20 C -0.2672(7) 0.9996(4) 0.4311(7)
H1 H 0.22760 0.76810 0.95650
H2 H 0.24580 0.85650 0.91340
H3 H 0.10770 0.85330 0.75180
H4 H 0.07200 0.77700 0.81390
H5 H 0.57410 0.83650 1.63380
H6 H 0.57670 0.86580 1.48530
H7 H 0.37780 0.81130 1.46060
H8 H 0.46880 0.71930 1.50020
H9 H 1.19680 0.28150 0.83200
H10 H 1.28550 0.18890 0.87080
H11 H 1.07800 0.14120 0.85830
H12 H 1.08610 0.16080 0.70520
H13 H -0.60650 1.00690 0.19250
H14 H -0.25880 0.99400 0.05670
C18A C -0.6420(6) 1.0037(4) -0.0336(6)
C17A C -0.5804(5) 1.0004(3) -0.1486(6)
C16A C -0.4368(6) 0.9963(4) -0.1146(6)
H13A H -0.39350 0.99310 -0.19250
C19A C -0.6657(5) 0.9995(3) -0.3085(6)
C20A C -0.7328(7) 1.0004(4) -0.4311(7)
I1A I -0.84181(4) 0.99814(2) -0.64480(4)
H14A H -0.74120 1.00600 -0.05670
C1A C 0.5362(5) 0.4675(3) 0.4605(5)
S1A S 0.4571(1) 0.41583(9) 0.2857(1)
C2A C 0.6048(5) 0.3335(3) 0.2757(5)
S3A S 0.5786(2) 0.2533(1) 0.1187(2)
C4A C 0.7541(8) 0.2027(8) 0.120(1)
C5A C 0.8629(10) 0.210(1) 0.226(1)
S4A S 0.8848(2) 0.2693(1) 0.4026(2)
C3A C 0.7222(5) 0.3396(3) 0.3847(6)
S2A S 0.7145(1) 0.42756(9) 0.5276(2)
H3A H 0.89230 0.14670 0.24820
H4A H 0.92800 0.22300 0.18610
H1A H 0.77240 0.23190 0.04350
H2A H 0.75420 0.14350 0.08660
#END

data_CSD_CIF_AHUKET01
_audit_creation_date 2003-11-05
_audit_creation_method CSD-ConQuest-V1
_database_code_CSD AHUKET01
_database_code_depnum_ccdc_archive 'CCDC 136808'
_database_code_depnum_ccdc_journal 1145/273
_chemical_formula_sum 'C40 H24 D4 Br1 I2 S24'
_chemical_formula_moiety
;
2(C10 H8 S8),C10 H8 S8 1+,C10 D4 I2,Br1 1-
;
_journal_coden_Cambridge 1145
_journal_volume 11
_journal_year 2001
_journal_page_first 1034
_journal_name_full 'J.Mater.Chem. '
loop_
_publ_author_name
"H.M.Yamamoto"
"R.Maeda"
"J.-I.Yamaura"
"R.Kato"
_chemical_name_systematic
;
tris(bis(Ethylenedithio)tetrathiafulvalene) 
2,3,5,6-tetradeutero-1,4-bis(iodoethynyl)benzene bromide
;
_cell_volume   1373.894
_exptl_crystal_colour 'black'
_exptl_crystal_density_diffrn 1.948
_exptl_special_details
;
isostructural with the chloride, difluoro and tetrahydro chlorides and 
bromides
Published cell parameters are a 10.192,2 b 15.420,3 c 9.423,2 alpha 99.82,2 
beta 106.98,2 gamma 77.17,2. Values from cif are used in the entry
;
_exptl_crystal_description 'block'
_diffrn_ambient_temperature 293.2
_refine_special_details
;
One ethylene bridge is equally disordered over two sites.

;
#These two values have been output from a single CSD field.
_refine_ls_R_factor_gt 0.0797
_refine_ls_wR_factor_gt 0.0797
_symmetry_cell_setting triclinic
_symmetry_space_group_name_H-M 'P -1'
_symmetry_Int_Tables_number 2
loop_
_symmetry_equiv_pos_site_id
_symmetry_equiv_pos_as_xyz
1 x,y,z
2 -x,-y,-z
_cell_length_a 10.193(2)
_cell_length_b 15.034(3)
_cell_length_c 9.423(2)
_cell_angle_alpha 95.75(2)
_cell_angle_beta 106.92(2)
_cell_angle_gamma 86.66(2)
_cell_formula_units_Z 1
loop_
_atom_type_symbol
_atom_type_radius_bond
C 0.68
H 0.23
Br 1.21
D 0.23
I 1.40
S 1.02
loop_
_atom_site_label
_atom_site_type_symbol
_atom_site_fract_x
_atom_site_fract_y
_atom_site_fract_z
I1 I 0.15793(7) 0.00236(4) 0.35554(7)
Br1 Br 0.00000 0.00000 0.00000
S1 S 0.8120(2) 0.4241(1) -0.0592(2)
S2 S 1.0647(2) 0.4199(1) 0.1905(2)
S3 S 0.6975(2) 0.2635(2) 0.0125(3)
S4 S 0.9998(2) 0.2601(2) 0.3072(3)
S5 S 0.4759(2) 0.4267(1) 0.2800(2)
S6 S 0.7356(2) 0.4159(1) 0.5194(2)
S7 S 0.5973(2) 0.5824(1) 0.1457(2)
S8 S 0.8568(2) 0.5721(1) 0.3856(2)
S9 S 0.3612(2) 0.2657(2) 0.3510(3)
S10 S 0.6711(2) 0.2524(2) 0.6296(3)
S11 S 0.6640(2) 0.7452(2) 0.0329(3)
S12 S 0.9739(2) 0.7306(2) 0.3139(3)
C1 C 0.9742(8) 0.4673(5) 0.0280(8)
C2 C 0.8308(8) 0.3374(5) 0.0562(9)
C3 C 0.9476(8) 0.3349(5) 0.1708(8)
C4 C 0.7184(9) 0.2285(6) 0.195(1)
C5 C 0.8569(10) 0.1860(6) 0.262(1)
C6 C 0.6408(8) 0.4670(5) 0.3618(8)
C7 C 0.6928(8) 0.5317(5) 0.3046(8)
C8 C 0.4982(8) 0.3382(5) 0.3925(9)
C9 C 0.6175(8) 0.3326(5) 0.5025(8)
C10 C 0.7157(8) 0.6653(5) 0.1615(9)
C11 C 0.8353(8) 0.6603(5) 0.2714(9)
C12 C 0.389(1) 0.2283(7) 0.532(1)
C13 C 0.521(1) 0.1852(7) 0.596(1)
C14 C 0.825(2) 0.780(1) 0.027(2)
C15? C 0.816(2) 0.813(1) 0.077(2)
C16 C 0.916(2) 0.814(1) 0.178(2)
C17? C 0.952(2) 0.767(1) 0.136(2)
C18 C 0.3609(9) -0.0029(7) 0.967(1)
C19 C 0.4214(9) -0.0003(5) 0.8504(9)
C20 C 0.5583(9) 0.0053(6) 0.894(1)
C21 C 0.3362(7) 0.0019(5) 0.6931(8)
C22 C 0.274(1) 0.0013(7) 0.575(1)
H1 H 0.70570 0.28000 0.25940
H2 H 0.64890 0.18720 0.18900
H3 H 0.87320 0.13890 0.19160
H4 H 0.85720 0.16060 0.35030
H5 H 0.37880 0.27920 0.59870
H6 H 0.31860 0.18740 0.52710
H7 H 0.53000 0.13460 0.52950
H8 H 0.52070 0.16480 0.68870
H9 H 0.87240 0.73000 -0.00870
H10 H 0.81820 0.83770 -0.01240
H11 H 0.80950 0.86000 0.14900
H12? H 0.90790 0.86930 0.23420
H13 H 1.02380 0.80600 0.14040
H14? H 0.95930 0.71550 0.06810
D1 D 0.25850 -0.00430 0.94360
D2 D 0.60340 0.00810 0.81210
C20A C 0.4417(9) -0.0053(6) 1.106(1)
C19A C 0.5786(9) 0.0003(5) 1.1496(9)
C18A C 0.6391(9) 0.0029(7) 1.033(1)
D1A D 0.74150 0.00430 1.05640
C21A C 0.6638(7) -0.0019(5) 1.3069(8)
C22A C 0.726(1) -0.0013(7) 1.425(1)
I1A I 0.84207(7) -0.00236(4) 1.64446(7)
D2A D 0.39660 -0.00810 1.18790
C1A C 1.0258(8) 0.5327(5) -0.0280(8)
S1A S 1.1880(2) 0.5759(1) 0.0592(2)
C2A C 1.1692(8) 0.6626(5) -0.0562(9)
S3A S 1.3025(2) 0.7365(2) -0.0125(3)
C4A C 1.2816(9) 0.7715(6) -0.195(1)
C5A C 1.1431(10) 0.8140(6) -0.262(1)
S4A S 1.0002(2) 0.7399(2) -0.3072(3)
C3A C 1.0524(8) 0.6651(5) -0.1708(8)
S2A S 0.9353(2) 0.5801(1) -0.1905(2)
H3A H 1.12680 0.86110 -0.19160
H4A H 1.14280 0.83940 -0.35030
H1A H 1.29430 0.72000 -0.25940
H2A H 1.35110 0.81280 -0.18900
#END

data_CSD_CIF_AHUKIX
_audit_creation_date 2003-11-05
_audit_creation_method CSD-ConQuest-V1
_database_code_CSD AHUKIX
_database_code_depnum_ccdc_archive 'CCDC 136805'
_database_code_depnum_ccdc_journal 1145/273
_chemical_formula_sum 'C40 H26 Cl1 F2 I2 S24'
_chemical_formula_moiety
;
2(C10 H8 S8),C10 H8 S8 1+,C10 H2 F2 I2,Cl1 1-
;
_journal_coden_Cambridge 1145
_journal_volume 11
_journal_year 2001
_journal_page_first 1034
_journal_name_full 'J.Mater.Chem. '
loop_
_publ_author_name
"H.M.Yamamoto"
"R.Maeda"
"J.-I.Yamaura"
"R.Kato"
_chemical_name_systematic
;
tris(bis(Ethylenedithio)tetrathiafulvalene) 
2,5-difluoro-1,4-bis(iodoethynyl)benzene chloride
;
_cell_volume   1371.665
_exptl_crystal_colour 'black'
_exptl_crystal_density_diffrn 1.941
_exptl_special_details
;
isostructural with the bromide, difluoro and tetradeutero chlorides and 
bromides
;
_exptl_crystal_description 'block'
_diffrn_ambient_temperature 293.2
#These two values have been output from a single CSD field.
_refine_ls_R_factor_gt 0.0327
_refine_ls_wR_factor_gt 0.0327
_symmetry_cell_setting triclinic
_symmetry_space_group_name_H-M 'P -1'
_symmetry_Int_Tables_number 2
loop_
_symmetry_equiv_pos_site_id
_symmetry_equiv_pos_as_xyz
1 x,y,z
2 -x,-y,-z
_cell_length_a 10.3480(6)
_cell_length_b 15.550(1)
_cell_length_c 9.2610(5)
_cell_angle_alpha 98.125(5)
_cell_angle_beta 107.703(4)
_cell_angle_gamma 75.622(3)
_cell_formula_units_Z 1
loop_
_atom_type_symbol
_atom_type_radius_bond
C 0.68
H 0.23
Cl 0.99
F 0.64
I 1.40
S 1.02
loop_
_atom_site_label
_atom_site_type_symbol
_atom_site_fract_x
_atom_site_fract_y
_atom_site_fract_z
I1 I -0.13115(2) 0.99951(1) 0.64710(2)
Cl1 Cl 0.00000 1.00000 1.00000
S1 S 0.53908(8) 0.58746(5) 0.7070(1)
S2 S 0.28433(8) 0.57190(5) 0.4658(1)
S3 S 0.41243(8) 0.75026(6) 0.8618(1)
S4 S 0.10775(8) 0.73115(7) 0.5809(1)
S5 S 0.86905(8) 0.58277(5) 1.3810(1)
S6 S 0.61247(8) 0.57390(5) 1.1362(1)
S7 S 1.04428(8) 0.42989(5) 1.1973(1)
S8 S 0.78774(8) 0.41887(5) 0.9532(1)
S9 S 0.75068(9) 0.74820(7) 1.5353(1)
S10 S 0.44509(9) 0.73809(8) 1.2494(1)
S11 S 1.21792(8) 0.27145(7) 1.0774(1)
S12 S 0.91003(8) 0.25790(6) 0.7929(1)
F1 F -0.5835(2) 0.9983(1) 0.2483(2)
C1 C 0.4626(3) 0.5339(2) 0.5368(4)
C2 C 0.3891(3) 0.6691(2) 0.7125(4)
C3 C 0.2724(3) 0.6614(2) 0.6011(4)
C4 C 0.2363(4) 0.8121(2) 0.8490(5)
C5 C 0.1244(4) 0.7647(2) 0.7764(5)
C6 C 0.7916(3) 0.5336(2) 1.2050(4)
C7 C 0.8647(3) 0.4691(2) 1.1284(4)
C8 C 0.7225(3) 0.6677(2) 1.3857(4)
C9 C 0.6058(3) 0.6636(2) 1.2730(4)
C10 C 1.0546(3) 0.3424(2) 1.0571(4)
C11 C 0.9372(3) 0.3369(2) 0.9450(4)
C12 C 0.5829(4) 0.8206(3) 1.5127(5)
C13 C 0.4618(4) 0.7810(3) 1.4398(5)
C14 C 1.1985(3) 0.2302(2) 0.8833(5)
C15 C 1.0791(3) 0.1848(2) 0.8184(4)
C16 C -0.5432(3) 0.9994(2) 0.1225(4)
C17 C -0.4029(3) 1.0000(2) 0.1456(4)
C18 C -0.3611(3) 1.0001(2) 0.0158(4)
C19 C -0.3107(3) 1.0002(2) 0.2967(4)
C20 C -0.2394(3) 1.0000(2) 0.4251(4)
H1 H 0.23100 0.83170 0.94950
H2 H 0.21950 0.86240 0.79300
H3 H 0.03870 0.80210 0.78460
H4 H 0.14200 0.71250 0.82890
H5 H 0.57610 0.84510 1.60940
H6 H 0.57720 0.86620 1.45110
H7 H 0.38080 0.82520 1.44250
H8 H 0.46810 0.73330 1.49800
H9 H 1.18380 0.27890 0.82420
H10 H 1.28130 0.18880 0.87650
H11 H 1.08780 0.14230 0.88740
H12 H 1.08570 0.15620 0.72400
H13 H -0.26750 1.00030 0.02500
C18A C -0.6389(3) 0.9999(2) -0.0158(4)
C17A C -0.5971(3) 1.0000(2) -0.1456(4)
C16A C -0.4568(3) 1.0006(2) -0.1225(4)
F1A F -0.4165(2) 1.0017(1) -0.2483(2)
C19A C -0.6893(3) 0.9998(2) -0.2967(4)
C20A C -0.7606(3) 1.0000(2) -0.4251(4)
I1A I -0.86885(2) 1.00049(1) -0.64710(2)
H13A H -0.73250 0.99970 -0.02500
C1A C 0.5374(3) 0.4661(2) 0.4632(4)
S1A S 0.46092(8) 0.41254(5) 0.2930(1)
C2A C 0.6109(3) 0.3309(2) 0.2875(4)
S3A S 0.58757(8) 0.24974(6) 0.1382(1)
C4A C 0.7637(4) 0.1879(2) 0.1510(5)
C5A C 0.8756(4) 0.2353(2) 0.2236(5)
S4A S 0.89225(8) 0.26885(7) 0.4191(1)
C3A C 0.7276(3) 0.3386(2) 0.3989(4)
S2A S 0.71567(8) 0.42810(5) 0.5342(1)
H3A H 0.96130 0.19790 0.21540
H4A H 0.85800 0.28750 0.17110
H1A H 0.76900 0.16830 0.05050
H2A H 0.78050 0.13760 0.20700
#END

data_CSD_CIF_AHUKOD
_audit_creation_date 2003-11-05
_audit_creation_method CSD-ConQuest-V1
_database_code_CSD AHUKOD
_database_code_depnum_ccdc_archive 'CCDC 166100'
_database_code_depnum_ccdc_journal 1145/273
_chemical_formula_sum 'C40 H26 Br1 F2 I2 S24'
_chemical_formula_moiety
;
2(C10 H8 S8),C10 H8 S8 1+,C10 H2 F2 I2,Br1 1-
;
_journal_coden_Cambridge 1145
_journal_volume 11
_journal_year 2001
_journal_page_first 1034
_journal_name_full 'J.Mater.Chem. '
loop_
_publ_author_name
"H.M.Yamamoto"
"R.Maeda"
"J.-I.Yamaura"
"R.Kato"
_chemical_name_systematic
;
tris(bis(Ethylenedithio)tetrathiafulvalene) 
2,5-difluoro-1,4-bis(iodoethynyl)benzene bromide
;
_cell_volume   1382.431
_exptl_crystal_colour 'black'
_exptl_crystal_density_diffrn 1.979
_exptl_special_details
;
isostructural with the chloride, difluoro, tetradeuterochloride and 
tetradeuterobromide analogues
;
_exptl_crystal_description 'prismatic'
_diffrn_ambient_temperature 298.2
#These two values have been output from a single CSD field.
_refine_ls_R_factor_gt 0.0442
_refine_ls_wR_factor_gt 0.0442
_symmetry_cell_setting triclinic
_symmetry_space_group_name_H-M 'P -1'
_symmetry_Int_Tables_number 2
loop_
_symmetry_equiv_pos_site_id
_symmetry_equiv_pos_as_xyz
1 x,y,z
2 -x,-y,-z
_cell_length_a 10.361(2)
_cell_length_b 15.373(3)
_cell_length_c 9.397(3)
_cell_angle_alpha 98.34(2)
_cell_angle_beta 107.54(2)
_cell_angle_gamma 76.35(2)
_cell_formula_units_Z 1
loop_
_atom_type_symbol
_atom_type_radius_bond
C 0.68
H 0.23
Br 1.21
F 0.64
I 1.40
S 1.02
loop_
_atom_site_label
_atom_site_type_symbol
_atom_site_fract_x
_atom_site_fract_y
_atom_site_fract_z
I1 I 0.36515(2) 0.99934(2) 0.63709(2)
Br1 Br 0.50000 1.00000 1.00000
S1 S 0.3665(1) 0.58054(6) 1.3826(1)
S2 S 0.1133(1) 0.57307(7) 1.1368(1)
S3 S 0.5424(1) 0.42927(7) 1.1991(1)
S4 S 0.2890(1) 0.42005(6) 0.9535(1)
S5 S 0.2500(1) 0.74612(9) 1.5380(1)
S6 S -0.0527(1) 0.7375(1) 1.2500(2)
S7 S 0.7145(1) 0.27097(9) 1.0775(1)
S8 S 0.4107(1) 0.26064(8) 0.7900(1)
S9 S 0.2138(1) 0.42759(7) 1.5344(1)
S10 S -0.0391(1) 0.41321(6) 1.2931(1)
S11 S 0.3885(1) 0.26959(9) 1.4171(1)
S12 S 0.0858(1) 0.25168(8) 1.1348(1)
F1 F -0.0869(3) 0.9996(2) 0.2432(3)
C1 C 0.2907(4) 0.5324(2) 1.2062(4)
C2 C 0.3648(4) 0.4688(2) 1.1302(4)
C3 C 0.2221(4) 0.6659(2) 1.3866(4)
C4 C 0.1068(3) 0.6619(2) 1.2745(4)
C5 C 0.5524(3) 0.3426(2) 1.0574(4)
C6 C 0.4373(3) 0.3380(2) 0.9454(4)
C7 C 0.0815(6) 0.8212(4) 1.5129(7)
C8 C -0.0390(5) 0.7792(4) 1.4398(6)
C9 C 0.6986(4) 0.2350(3) 0.8837(5)
C10 C 0.5796(4) 0.1879(3) 0.8114(5)
C11 C 0.0366(4) 0.4663(2) 1.4632(4)
C12 C 0.2250(3) 0.3393(2) 1.3974(4)
C13 C 0.1086(4) 0.3320(2) 1.2860(4)
C14 C 0.3748(5) 0.2363(4) 1.2247(5)
C15 C 0.2609(5) 0.1894(4) 1.1474(7)
C16 C 0.2580(4) 0.9993(3) 0.4198(4)
C17 C 0.1870(4) 0.9993(2) 0.2930(4)
C18 C 0.0960(3) 0.9990(2) 0.1437(4)
C19 C -0.0454(4) 1.0005(2) 0.1203(4)
C20 C 0.1401(3) 0.9985(2) 0.0174(4)
H1 H 0.07370 0.84690 1.60890
H2 H 0.07800 0.86720 1.45370
H3 H -0.12040 0.82280 1.44260
H4 H -0.03260 0.73050 1.49510
H5 H 0.68520 0.28620 0.83110
H6 H 0.78190 0.19490 0.87610
H7 H 0.58690 0.14140 0.87160
H8 H 0.58680 0.16250 0.71510
H9 H 0.36130 0.28860 1.17480
H10 H 0.45920 0.19730 1.21780
H11 H 0.27480 0.13760 1.19870
H12 H 0.26700 0.17160 1.04810
H13 H 0.23430 0.99750 0.02670
C20A C -0.1401(3) 1.0015(2) -0.0174(4)
C18A C -0.0960(3) 1.0010(2) -0.1437(4)
C17A C -0.1870(4) 1.0007(2) -0.2930(4)
C16A C -0.2580(4) 1.0007(3) -0.4198(4)
I1A I -0.36515(2) 1.00066(2) -0.63709(2)
C19A C 0.0454(4) 0.9995(2) -0.1203(4)
F1A F 0.0869(3) 1.0004(2) -0.2432(3)
H13A H -0.23430 1.00250 -0.02670
C11A C -0.0366(4) 0.5337(2) 1.5368(4)
S9A S -0.2138(1) 0.57241(7) 1.4656(1)
C12A C -0.2250(3) 0.6607(2) 1.6026(4)
S11A S -0.3885(1) 0.73041(9) 1.5829(1)
C14A C -0.3748(5) 0.7637(4) 1.7753(5)
C15A C -0.2609(5) 0.8106(4) 1.8526(7)
S12A S -0.0858(1) 0.74832(8) 1.8652(1)
C13A C -0.1086(4) 0.6680(2) 1.7140(4)
S10A S 0.0391(1) 0.58679(6) 1.7069(1)
H11A H -0.27480 0.86240 1.80130
H12A H -0.26700 0.82840 1.95190
H9A H -0.36130 0.71140 1.82520
H10A H -0.45920 0.80270 1.78220
#END

data_CSD_CIF_AHULOE
_audit_creation_date 2003-11-05
_audit_creation_method CSD-ConQuest-V1
_database_code_CSD AHULOE
_database_code_depnum_ccdc_archive 'CCDC 136811'
_database_code_depnum_ccdc_journal 1145/273
_chemical_formula_sum 'C40 H24 Br1 F4 I2 S24'
_chemical_formula_moiety
;
2(C10 H8 S8),C10 H8 S8 1+,C10 F4 I2,Br1 1-
;
_journal_coden_Cambridge 1145
_journal_volume 11
_journal_year 2001
_journal_page_first 1034
_journal_name_full 'J.Mater.Chem. '
loop_
_publ_author_name
"H.M.Yamamoto"
"R.Maeda"
"J.-I.Yamaura"
"R.Kato"
_chemical_name_systematic
;
tris(bis(Ethylenedithio)tetrathiafulvalene) 
2,3,5,6-tetrafluoro-1,4-bis(iodoethynyl)benzene bromide
;
_cell_volume   2792.868
_exptl_crystal_colour 'black'
_exptl_crystal_density_diffrn 2.002
_exptl_crystal_description 'rod'
_diffrn_ambient_temperature 293.2
#These two values have been output from a single CSD field.
_refine_ls_R_factor_gt 0.0383
_refine_ls_wR_factor_gt 0.0383
_symmetry_cell_setting triclinic
_symmetry_space_group_name_H-M 'P -1'
_symmetry_Int_Tables_number 2
loop_
_symmetry_equiv_pos_site_id
_symmetry_equiv_pos_as_xyz
1 x,y,z
2 -x,-y,-z
_cell_length_a 13.180(1)
_cell_length_b 19.128(2)
_cell_length_c 12.4640(6)
_cell_angle_alpha 105.250(4)
_cell_angle_beta 112.817(5)
_cell_angle_gamma 82.455(4)
_cell_formula_units_Z 2
loop_
_atom_type_symbol
_atom_type_radius_bond
C 0.68
H 0.23
Br 1.21
F 0.64
I 1.40
S 1.02
loop_
_atom_site_label
_atom_site_type_symbol
_atom_site_fract_x
_atom_site_fract_y
_atom_site_fract_z
I1 I 0.66614(3) 0.52821(2) 0.51763(3)
I2 I 0.33722(3) 0.47548(2) -0.01667(3)
Br1 Br 0.49766(5) 0.50154(3) 0.25239(4)
S1 S 0.6818(1) 0.13512(7) 0.4792(1)
S2 S 0.8562(1) 0.12770(7) 0.7118(1)
S3 S 0.7534(1) -0.02781(7) 0.3659(1)
S4 S 0.9338(1) -0.03042(7) 0.5961(1)
S5 S 0.6293(1) 0.29156(7) 0.5503(1)
S6 S 0.8338(1) 0.28003(7) 0.8300(1)
S7 S 0.7997(1) -0.17382(7) 0.2422(1)
S8 S 1.0158(1) -0.17786(8) 0.5165(1)
S9 S 0.8425(1) -0.00934(7) 0.8709(1)
S10 S 0.8356(1) -0.05559(7) 1.0755(1)
S11 S 0.7718(1) 0.15357(7) 0.9782(1)
S12 S 0.7677(1) 0.10834(7) 1.1847(1)
S13 S 0.9162(1) -0.15136(8) 0.7592(1)
S14 S 0.9096(1) -0.20608(7) 1.0039(1)
S15 S 0.7369(1) 0.31040(7) 1.0727(1)
S16 S 0.7330(1) 0.25376(8) 1.3178(1)
S17 S 0.4441(1) -0.07759(7) 0.3270(1)
S18 S 0.6226(1) -0.08520(7) 0.5564(1)
S19 S 0.4750(1) -0.22627(7) 0.2015(1)
S20 S 0.6883(1) -0.23807(7) 0.4753(1)
S21 S 0.5288(1) -0.06001(7) 0.8387(1)
S22 S 0.5334(1) -0.10468(7) 1.0493(1)
S23 S 0.5836(1) -0.20375(7) 0.7154(1)
S24 S 0.5932(1) -0.25848(7) 0.9679(1)
F1 F 0.8768(2) 0.6251(1) 1.0086(2)
F2 F 0.9814(2) 0.4073(2) 0.7891(2)
F3 F 0.0246(2) 0.5982(2) -0.2919(2)
F4 F 0.1184(2) 0.3731(2) -0.5030(2)
C1 C 0.8215(4) 0.0170(2) 0.5134(4)
C2 C 0.7901(4) 0.0850(2) 0.5613(4)
C3 C 0.8380(4) -0.1062(2) 0.3763(4)
C4 C 0.9183(4) -0.1084(3) 0.4794(4)
C5 C 0.7097(4) 0.2156(2) 0.5913(4)
C6 C 0.7872(4) 0.2118(2) 0.6973(4)
C7 C 0.8980(6) -0.2439(4) 0.2847(6)
C8 C 0.9660(7) -0.2475(4) 0.3948(6)
C9 C 0.7038(4) 0.3628(3) 0.6695(4)
C10 C 0.7301(4) 0.3502(2) 0.7929(4)
C11 C 0.8205(4) 0.0155(2) 1.0055(4)
C12 C 0.7912(4) 0.0839(2) 1.0520(4)
C13 C 0.8795(4) -0.0992(2) 0.8778(4)
C14 C 0.8792(4) -0.1205(2) 0.9716(4)
C15 C 0.7521(4) 0.2223(2) 1.0955(4)
C16 C 0.7538(4) 0.2017(3) 1.1910(4)
C17 C 0.8979(5) -0.2403(3) 0.7685(4)
C18 C 0.9559(5) -0.2565(3) 0.8872(5)
C19 C 0.6777(5) 0.3558(3) 1.1814(5)
C20 C 0.7360(6) 0.3440(3) 1.3024(5)
C21 C 0.5135(4) -0.0346(2) 0.4746(4)
C22 C 0.5200(4) -0.1596(2) 0.3367(4)
C23 C 0.6000(4) -0.1637(2) 0.4409(4)
C24 C 0.5803(4) -0.2962(3) 0.2335(4)
C25 C 0.6168(5) -0.3104(3) 0.3552(4)
C26 C 0.5129(4) -0.0348(2) 0.9751(4)
C27 C 0.5586(4) -0.1515(2) 0.8404(4)
C28 C 0.5638(4) -0.1721(2) 0.9373(4)
C29 C 0.5743(4) -0.2937(3) 0.7301(4)
C30 C 0.6392(4) -0.3075(3) 0.8495(5)
C31 C 0.7787(4) 0.5349(3) 0.6845(4)
C32 C 0.8455(4) 0.5308(3) 0.7815(5)
C33 C 0.9244(4) 0.5170(3) 0.8926(4)
C34 C 0.9371(4) 0.5630(2) 1.0018(4)
C35 C 0.9908(4) 0.4532(3) 0.8935(4)
C36 C 0.2246(4) 0.4692(3) -0.1846(4)
C37 C 0.1569(4) 0.4735(3) -0.2813(5)
C38 C 0.0772(4) 0.4853(3) -0.3904(4)
C39 C 0.0131(4) 0.5487(3) -0.3937(4)
C40 C 0.0607(4) 0.4365(3) -0.4997(5)
H1 H 0.85840 -0.28780 0.25300
H2 H 0.94650 -0.24690 0.24170
H3 H 1.03090 -0.27430 0.38560
H4 H 0.93000 -0.27770 0.41880
H5 H 0.77420 0.36690 0.66200
H6 H 0.66470 0.40810 0.66210
H7 H 0.66210 0.33680 0.79420
H8 H 0.75210 0.39450 0.85200
H9 H 0.82010 -0.24610 0.74740
H10 H 0.92040 -0.27530 0.71070
H11 H 1.03310 -0.24650 0.91160
H12 H 0.95190 -0.30710 0.88080
H13 H 0.66940 0.40670 1.18470
H14 H 0.60260 0.33850 1.15420
H15 H 0.70830 0.37750 1.35650
H16 H 0.81220 0.35530 1.32400
H17 H 0.55730 -0.33990 0.17500
H18 H 0.64610 -0.28160 0.22800
H19 H 0.66020 -0.35410 0.35830
H20 H 0.54950 -0.31870 0.36560
H21 H 0.49760 -0.30080 0.71520
H22 H 0.59380 -0.32840 0.67090
H23 H 0.71430 -0.29370 0.86880
H24 H 0.64210 -0.35820 0.84410
C35A C 1.0092(4) 0.5468(3) 1.1065(4)
F2A F 1.0186(2) 0.5927(2) 1.2109(2)
C33A C 1.0756(4) 0.4830(3) 1.1074(4)
C32A C 1.1545(4) 0.4692(3) 1.2185(5)
C31A C 1.2213(4) 0.4651(3) 1.3155(4)
I1A I 1.33386(3) 0.47179(2) 1.48237(3)
C34A C 1.0629(4) 0.4370(2) 0.9982(4)
F1A F 1.1232(2) 0.3749(1) 0.9914(2)
C40A C -0.0607(4) 0.5635(3) -0.5003(5)
F4A F -0.1184(2) 0.6269(2) -0.4970(2)
C38A C -0.0772(4) 0.5147(3) -0.6096(4)
C37A C -0.1569(4) 0.5265(3) -0.7187(5)
C36A C -0.2246(4) 0.5308(3) -0.8154(4)
I2A I -0.33722(3) 0.52452(2) -0.98333(3)
C39A C -0.0131(4) 0.4513(3) -0.6063(4)
F3A F -0.0246(2) 0.4018(2) -0.7081(2)
C21A C 0.4865(4) 0.0346(2) 0.5254(4)
S17A S 0.5559(1) 0.07759(7) 0.6730(1)
C22A C 0.4800(4) 0.1596(2) 0.6633(4)
S19A S 0.5250(1) 0.22627(7) 0.7985(1)
C24A C 0.4197(4) 0.2962(3) 0.7665(4)
C25A C 0.3832(5) 0.3104(3) 0.6448(4)
S20A S 0.3117(1) 0.23807(7) 0.5247(1)
C23A C 0.4000(4) 0.1637(2) 0.5591(4)
S18A S 0.3774(1) 0.08520(7) 0.4436(1)
H19A H 0.33980 0.35410 0.64170
H20A H 0.45050 0.31870 0.63440
H17A H 0.44270 0.33990 0.82500
H18A H 0.35390 0.28160 0.77200
C26A C 0.4871(4) 0.0348(2) 1.0249(4)
S21A S 0.4712(1) 0.06001(7) 1.1613(1)
C27A C 0.4414(4) 0.1515(2) 1.1596(4)
S23A S 0.4164(1) 0.20375(7) 1.2846(1)
C29A C 0.4257(4) 0.2937(3) 1.2699(4)
C30A C 0.3608(4) 0.3075(3) 1.1505(5)
S24A S 0.4068(1) 0.25848(7) 1.0321(1)
C28A C 0.4362(4) 0.1721(2) 1.0627(4)
S22A S 0.4666(1) 0.10468(7) 0.9507(1)
H23A H 0.28570 0.29370 1.13120
H24A H 0.35790 0.35820 1.15590
H21A H 0.50240 0.30080 1.28480
H22A H 0.40620 0.32840 1.32910
#END

data_CSD_CIF_AHULUK
_audit_creation_date 2003-11-05
_audit_creation_method CSD-ConQuest-V1
_database_code_CSD AHULUK
_database_code_depnum_ccdc_archive 'CCDC 136812'
_database_code_depnum_ccdc_journal 1145/273
_chemical_formula_sum 'C32 H24 Cl2 I2 S16'
_chemical_formula_moiety
;
2(C10 H8 S8 1+),C12 H8 I2,2(Cl1 1-)
;
_journal_coden_Cambridge 1145
_journal_volume 11
_journal_year 2001
_journal_page_first 1034
_journal_name_full 'J.Mater.Chem. '
loop_
_publ_author_name
"H.M.Yamamoto"
"R.Maeda"
"J.-I.Yamaura"
"R.Kato"
_chemical_name_systematic
;
bis(bis(Ethylenedithio)tetrathiafulvalene) 
2,5-dimethyl-1,4-bis(iodoethynyl)benzene dichloride
;
_cell_volume   2112.634
_exptl_crystal_colour 'black'
_exptl_crystal_density_diffrn 1.959
_exptl_crystal_description 'block'
_diffrn_ambient_temperature 293.2
#These two values have been output from a single CSD field.
_refine_ls_R_factor_gt 0.0463
_refine_ls_wR_factor_gt 0.0463
_symmetry_cell_setting monoclinic
_symmetry_space_group_name_H-M 'P 21/n'
_symmetry_Int_Tables_number 14
loop_
_symmetry_equiv_pos_site_id
_symmetry_equiv_pos_as_xyz
1 x,y,z
2 1/2+x,1/2-y,1/2+z
3 -x,-y,-z
4 -1/2-x,-1/2+y,-1/2-z
_cell_length_a 23.072(2)
_cell_length_b 14.695(1)
_cell_length_c 6.2770(3)
_cell_angle_alpha 90
_cell_angle_beta 96.928(5)
_cell_angle_gamma 90
_cell_formula_units_Z 2
loop_
_atom_type_symbol
_atom_type_radius_bond
C 0.68
H 0.23
Cl 0.99
I 1.40
S 1.02
loop_
_atom_site_label
_atom_site_type_symbol
_atom_site_fract_x
_atom_site_fract_y
_atom_site_fract_z
I1 I 0.33570(1) 0.23018(2) 0.01416(5)
Cl1 Cl 0.24953(6) 0.1267(1) -0.2704(3)
S1 S 0.53543(5) 0.14939(9) 0.3155(2)
S2 S 0.47988(6) 0.1817(1) 0.6973(2)
S3 S 0.43014(5) 0.01527(8) 0.1359(2)
S4 S 0.37049(6) 0.0577(1) 0.5043(2)
S5 S 0.63375(6) 0.2764(1) 0.4278(3)
S6 S 0.56559(6) 0.3121(1) 0.8934(2)
S7 S 0.33862(6) -0.10112(10) -0.0791(3)
S8 S 0.26347(8) -0.0473(2) 0.3525(3)
C1 C 0.4776(2) 0.1271(3) 0.4556(8)
C2 C 0.4315(2) 0.0710(3) 0.3758(8)
C3 C 0.5704(2) 0.2269(3) 0.5013(9)
C4 C 0.5440(2) 0.2414(3) 0.6772(9)
C5 C 0.3617(2) -0.0324(3) 0.1412(8)
C6 C 0.3334(2) -0.0132(4) 0.3096(9)
C7 C 0.6599(3) 0.3331(6) 0.666(1)
C8 C 0.6304(3) 0.3612(6) 0.819(1)
C9 C 0.2614(2) -0.1072(4) -0.069(1)
C10 C 0.2419(3) -0.1104(8) 0.134(1)
C11 C 0.3933(2) 0.3096(4) 0.2055(9)
C12 C 0.4247(2) 0.3633(3) 0.3053(9)
C13 C 0.4629(2) 0.4318(3) 0.4101(8)
C14 C 0.5094(2) 0.4628(3) 0.3072(8)
C15 C 0.4530(2) 0.4687(3) 0.6052(8)
C16 C 0.4033(3) 0.4391(4) 0.7234(10)
H1 H 0.68870 0.29430 0.73540
H2 H 0.67750 0.38700 0.61940
H3 H 0.62060 0.42270 0.78430
H4 H 0.65760 0.35940 0.94520
H5 H 0.24430 -0.05570 -0.14090
H6 H 0.24770 -0.16110 -0.14350
H7 H 0.24880 -0.17170 0.18130
H8 H 0.20100 -0.10040 0.10710
H9 H 0.51570 0.43650 0.17020
H10 H 0.37870 0.48970 0.74060
H11 H 0.41860 0.41660 0.86130
H12 H 0.38190 0.39270 0.64500
C15B C 0.5470(2) 0.5313(3) 0.3948(8)
C13B C 0.5371(2) 0.5682(3) 0.5899(8)
C12B C 0.5753(2) 0.6367(3) 0.6947(9)
C11B C 0.6067(2) 0.6904(4) 0.7945(9)
I1B I 0.66430(1) 0.76982(2) 0.98584(5)
C14B C 0.4906(2) 0.5372(3) 0.6928(8)
H9B H 0.48430 0.56350 0.82980
C16B C 0.5967(3) 0.5609(4) 0.2766(10)
H10B H 0.62130 0.51030 0.25940
H11B H 0.58140 0.58340 0.13870
H12B H 0.61810 0.60730 0.35500
#END

data_CSD_CIF_AKADEV
_audit_creation_date 2003-12-16
_audit_creation_method CSD-ConQuest-V1
_database_code_CSD AKADEV
_database_code_depnum_ccdc_archive 'CCDC 161213'
_chemical_formula_sum 'C22 H22 Cl5 Mn2 O1 S16'
_chemical_formula_moiety
;
(C10 H8 S8 1+)n,n(C10 H8 S8),n(C2 H6 Cl5 Mn2 O1 1-)
;
_journal_coden_Cambridge 208
_journal_volume 168
_journal_year 2002
_journal_page_first 418
_journal_name_full 'J.Solid State Chem. '
loop_
_publ_author_name
"H.Miyasaka"
"Y.Yoshino"
"T.Ishii"
"R.Kanehama"
"T.Manabe"
"M.Yamashita"
"H.Nishikawa"
"I.Ikemoto"
"H.Kishida"
"H.Matsuzaki"
"H.Okamoto"
_chemical_name_systematic
;
catena-(bis(bis(Ethylenedithio)tetrathiafulvalene) 
tris(\m~3~-chloro)-(\m~2~-chloro)-ethanol-chloro-di-manganese(ii))
;
_cell_volume   1868.298
_exptl_crystal_colour 'black'
_exptl_crystal_density_diffrn 1.96
_exptl_crystal_description 'block'
_exptl_crystal_preparation '1,2-dichloroethane/ethanol(9'
_diffrn_ambient_temperature 296.2
#These two values have been output from a single CSD field.
_refine_ls_R_factor_gt 0.0323
_refine_ls_wR_factor_gt 0.0323
_symmetry_cell_setting triclinic
_symmetry_space_group_name_H-M 'P -1'
_symmetry_Int_Tables_number 2
loop_
_symmetry_equiv_pos_site_id
_symmetry_equiv_pos_as_xyz
1 x,y,z
2 -x,-y,-z
_cell_length_a 13.1628(5)
_cell_length_b 20.3985(9)
_cell_length_c 7.4966(3)
_cell_angle_alpha 98.3498(8)
_cell_angle_beta 104.980(1)
_cell_angle_gamma 74.602(2)
_cell_formula_units_Z 2
loop_
_atom_type_symbol
_atom_type_radius_bond
C 0.68
H 0.23
Cl 0.99
Mn 1.35
O 0.68
S 1.02
loop_
_atom_site_label
_atom_site_type_symbol
_atom_site_fract_x
_atom_site_fract_y
_atom_site_fract_z
Mn1 Mn 1.36935(5) 0.03005(3) 1.57605(9)
Mn2 Mn 1.64349(5) -0.02131(3) 1.93883(9)
Cl1 Cl 1.55437(8) 0.06105(5) 1.6716(1)
Cl2 Cl 1.29300(8) 0.10439(5) 1.3156(1)
Cl3 Cl 1.45603(8) -0.05780(5) 1.8255(1)
Cl4 Cl 1.29866(8) 0.10982(5) 1.8261(1)
Cl5 Cl 1.80155(8) 0.02790(5) 2.0707(1)
S1 S 0.57583(9) 0.24353(5) 0.6101(2)
S2 S 0.82459(9) 0.24696(5) 0.5203(2)
S3 S 0.54683(9) 0.39215(5) 0.6789(2)
S4 S 0.75748(9) 0.39505(5) 0.6160(2)
S5 S 0.50395(9) 0.55493(5) 0.8047(2)
S6 S 0.72030(9) 0.55329(5) 0.7579(2)
S7 S 0.45235(9) 0.69841(5) 0.9469(2)
S8 S 0.71225(9) 0.69662(5) 0.9016(2)
S9 S 0.83008(9) 0.21029(5) 1.0253(2)
S10 S 1.07936(9) 0.22190(5) 0.9497(2)
S11 S 0.79674(9) 0.35861(5) 1.1188(2)
S12 S 1.00631(9) 0.36780(5) 1.0655(2)
S13 S 0.74877(9) 0.52136(5) 1.2603(2)
S14 S 0.97080(9) 0.52098(5) 1.2464(2)
S15 S 0.69223(9) 0.66450(5) 1.4061(2)
S16 S 0.96127(10) 0.66240(6) 1.4040(2)
O1 O 1.2263(2) -0.0108(1) 1.5336(4)
C1 C 0.6778(3) 0.1729(2) 0.5401(6)
C2 C 0.7371(4) 0.1897(2) 0.4106(6)
C3 C 0.6316(3) 0.3137(2) 0.6228(6)
C4 C 0.7277(3) 0.3153(2) 0.5918(6)
C5 C 0.6406(3) 0.4390(2) 0.6903(6)
C6 C 0.6243(3) 0.5073(2) 0.7471(6)
C7 C 0.5466(3) 0.6311(2) 0.8673(6)
C8 C 0.6478(3) 0.6295(2) 0.8498(6)
C9 C 0.5189(4) 0.7686(2) 0.9907(6)
C10 C 0.5934(4) 0.7667(2) 0.8665(6)
C11 C 0.9302(4) 0.1457(2) 0.9322(7)
C12 C 1.0455(4) 0.1496(2) 1.0121(7)
C13 C 0.8811(3) 0.2829(2) 1.0466(6)
C14 C 0.9765(3) 0.2871(2) 1.0197(6)
C15 C 0.8873(3) 0.4089(2) 1.1362(6)
C16 C 0.8709(3) 0.4759(2) 1.2061(6)
C17 C 0.7904(3) 0.5973(2) 1.3353(6)
C18 C 0.8937(3) 0.5968(2) 1.3335(6)
C19 C 0.7513(4) 0.7352(2) 1.4099(8)
C20 C 0.8657(4) 0.7256(2) 1.5126(8)
C21 C 1.1227(4) 0.0118(2) 1.4040(6)
C22 C 1.0604(4) 0.0797(3) 1.4691(7)
H1 H 1.23230 -0.04710 1.60750
H2 H 0.72970 0.15710 0.64850
H3 H 0.64340 0.13750 0.47940
H4 H 0.46420 0.81000 0.97620
H5 H 0.56020 0.76840 1.11520
H6 H 0.68490 0.21070 0.30880
H7 H 0.78020 0.14840 0.36650
H8 H 0.61620 0.80820 0.89030
H9 H 0.55440 0.76250 0.74140
H10 H 1.13630 0.01520 1.28810
H11 H 1.08100 -0.02070 1.39130
H12 H 0.92360 0.10240 0.95370
H13 H 0.91500 0.14940 0.80270
H14 H 0.87140 0.71220 1.63150
H15 H 0.88490 0.76810 1.52550
H16 H 1.09130 0.10910 0.96970
H17 H 1.05840 0.15200 1.14330
H18 H 0.74720 0.74240 1.28540
H19 H 0.71010 0.77460 1.46550
H20 H 1.10120 0.11280 1.48160
H21 H 0.99370 0.09280 1.38100
H22 H 1.04620 0.07690 1.58530
Cl1A Cl 1.44563(8) -0.06105(5) 1.3284(1)
Cl2A Cl 1.70700(8) -0.10439(5) 1.6844(1)
Cl3A Cl 1.54397(8) 0.05780(5) 2.1745(1)
Cl4A Cl 1.70134(8) -0.10982(5) 2.1739(1)
Mn1A Mn 1.63065(5) -0.03005(3) 1.42395(9)
Mn2A Mn 1.35651(5) 0.02131(3) 1.06117(9)
Mn2A* Mn 1.35651(5) 0.02131(3) 2.06117(9)
#END

data_CSD_CIF_AKAFIB
_audit_creation_date 2003-12-16
_audit_creation_method CSD-ConQuest-V1
_database_code_CSD AKAFIB
_database_code_depnum_ccdc_archive 'CCDC 192881'
_chemical_formula_sum 'C22 H16 F6 N1 O4 S18'
_chemical_formula_moiety
;
C10 H8 S8 1+,C10 H8 S8,C2 F6 N1 O4 S2 1-
;
_journal_coden_Cambridge 208
_journal_volume 168
_journal_year 2002
_journal_page_first 524
_journal_name_full 'J.Solid State Chem. '
loop_
_publ_author_name
"J.A.Schlueter"
"U.Geiser"
"H.H.Wang"
"A.M.Kini"
"B.H.Ward"
"J.P.Parakka"
"R.G.Daugherty"
"M.E.Kelly"
"P.G.Nixon"
"R.W.Winter"
"G.L.Gard"
"L.K.Montgomery"
"H.-J.Koo"
"M.-H.Whangbo"
_chemical_name_systematic
;
bis(Ethylenedithio)tetrathiafulvalenium bis(trifluoromethylsulfonyl)imide
;
_cell_volume    922.645
_exptl_crystal_colour 'black'
_exptl_crystal_density_diffrn 1.889
_exptl_crystal_description 'elongated plate'
_diffrn_ambient_temperature 295
_refine_special_details
;
The bis(trifluoromethanesulfonyl)imide anion is disordered about an inversion 
centre.
;
#These two values have been output from a single CSD field.
_refine_ls_R_factor_gt 0.05
_refine_ls_wR_factor_gt 0.05
_symmetry_cell_setting triclinic
_symmetry_space_group_name_H-M 'P -1'
_symmetry_Int_Tables_number 2
loop_
_symmetry_equiv_pos_site_id
_symmetry_equiv_pos_as_xyz
1 x,y,z
2 -x,-y,-z
_cell_length_a 6.6394(13)
_cell_length_b 8.658(2)
_cell_length_c 17.349(4)
_cell_angle_alpha 94.70(2)
_cell_angle_beta 97.21(2)
_cell_angle_gamma 68.95(2)
_cell_formula_units_Z 1
loop_
_atom_type_symbol
_atom_type_radius_bond
C 0.68
H 0.23
F 0.35
N 0.57
O 0.61
S 1.02
loop_
_atom_site_label
_atom_site_type_symbol
_atom_site_fract_x
_atom_site_fract_y
_atom_site_fract_z
S1 S 0.0637(2) 0.8138(2) 0.56563(6)
S2 S 0.4877(2) 0.7903(2) 0.52321(6)
S3 S -0.0086(2) 0.6040(2) 0.40823(6)
S4 S 0.4071(2) 0.5935(2) 0.36285(6)
S5 S 0.0898(2) 1.0071(2) 0.71300(7)
S6 S 0.6022(2) 0.9677(2) 0.66201(7)
S7 S -0.1324(2) 0.4429(2) 0.26432(7)
S8 S 0.3551(2) 0.4413(2) 0.20633(7)
C1 C 0.2532(6) 0.7439(5) 0.4988(2)
C2 C 0.2212(6) 0.6573(5) 0.4311(2)
C3 C 0.2125(6) 0.9082(5) 0.6304(2)
C4 C 0.4082(6) 0.8962(5) 0.6107(2)
C5 C 0.0605(6) 0.5144(5) 0.3163(2)
C6 C 0.2485(6) 0.5128(5) 0.2950(2)
C7 C 0.3191(8) 1.0242(7) 0.7746(3)
C8 C 0.4614(8) 1.0906(7) 0.7389(3)
C9 C -0.0153(11) 0.3645(11) 0.1784(3)
C10 C 0.1254(11) 0.4217(10) 0.1477(3)
N1 N 0.024(2) 0.0560(12) 0.0354(6)
S9 S 0.0970(3) -0.1353(2) 0.04737(9)
O1 O 0.117(2) -0.1485(15) 0.1327(7)
O2? O -0.008(2) -0.230(2) 0.0040(7)
C11 C 0.3788(12) -0.2147(11) 0.0283(4)
F1? F 0.448(4) -0.375(2) 0.0407(14)
F2? F 0.490(2) -0.130(3) 0.0625(7)
F3? F 0.419(6) -0.217(5) -0.040(2)
O3? O -0.073(2) 0.057(2) -0.1118(7)
O4 O 0.081(4) -0.307(2) 0.0358(11)
F4 F 0.396(6) -0.249(5) -0.044(2)
F5 F 0.426(3) -0.071(3) 0.0426(15)
F6 F 0.499(2) -0.310(2) 0.0790(7)
H1 H 0.40510 0.91460 0.79290
H2 H 0.26640 1.09260 0.81950
H3 H 0.36970 1.19800 0.71830
H4 H 0.56440 1.11120 0.77810
H5 H -0.12940 0.36330 0.13890
H6 H 0.07150 0.24520 0.18720
H7 H 0.17260 0.35830 0.10160
H8 H 0.03370 0.53390 0.13110
N1A N -0.024(2) -0.0560(12) -0.0354(6)
S9A S -0.0970(3) 0.1353(2) -0.04737(9)
O1A O -0.117(2) 0.1485(15) -0.1327(7)
C11A C -0.3788(12) 0.2147(11) -0.0283(4)
F4A F -0.396(6) 0.249(5) 0.044(2)
F5A F -0.426(3) 0.071(3) -0.0426(15)
F6A F -0.499(2) 0.310(2) -0.0790(7)
O4A O -0.081(4) 0.307(2) -0.0358(11)
#END

data_CSD_CIF_AKAFOH
_audit_creation_date 2003-12-16
_audit_creation_method CSD-ConQuest-V1
_database_code_CSD AKAFOH
_database_code_depnum_ccdc_archive 'CCDC 192882'
_chemical_formula_sum 'C23 H17 F6 O4 S18'
_chemical_formula_moiety
;
C10 H8 S8 1+,C10 H8 S8,C3 H1 F6 O4 S2 1-
;
_journal_coden_Cambridge 208
_journal_volume 168
_journal_year 2002
_journal_page_first 524
_journal_name_full 'J.Solid State Chem. '
loop_
_publ_author_name
"J.A.Schlueter"
"U.Geiser"
"H.H.Wang"
"A.M.Kini"
"B.H.Ward"
"J.P.Parakka"
"R.G.Daugherty"
"M.E.Kelly"
"P.G.Nixon"
"R.W.Winter"
"G.L.Gard"
"L.K.Montgomery"
"H.-J.Koo"
"M.-H.Whangbo"
_chemical_name_systematic
;
bis(Ethylenedithio)tetrathiafulvalenium bis(trifluoromethylsulfonato)methanide
;
_cell_volume   1856.055
_exptl_crystal_colour 'black'
_exptl_crystal_density_diffrn 1.876
_exptl_crystal_description 'irregular block'
_diffrn_ambient_temperature 295
#These two values have been output from a single CSD field.
_refine_ls_R_factor_gt 0.057
_refine_ls_wR_factor_gt 0.057
_symmetry_cell_setting triclinic
_symmetry_space_group_name_H-M 'P -1'
_symmetry_Int_Tables_number 2
loop_
_symmetry_equiv_pos_site_id
_symmetry_equiv_pos_as_xyz
1 x,y,z
2 -x,-y,-z
_cell_length_a 6.5955(4)
_cell_length_b 9.1370(5)
_cell_length_c 33.038(2)
_cell_angle_alpha 83.718(1)
_cell_angle_beta 89.005(1)
_cell_angle_gamma 69.734(1)
_cell_formula_units_Z 2
loop_
_atom_type_symbol
_atom_type_radius_bond
C 0.68
H 0.23
F 0.64
O 0.68
S 1.02
loop_
_atom_site_label
_atom_site_type_symbol
_atom_site_fract_x
_atom_site_fract_y
_atom_site_fract_z
S1 S 0.7313(2) 0.25970(13) 0.47702(3)
S2 S 0.2582(2) 0.37903(14) 0.47005(3)
S3 S 0.7014(2) 0.02004(13) 0.55636(3)
S4 S 0.2290(2) 0.14155(14) 0.54576(3)
S5 S 0.7973(2) 0.4549(2) 0.40485(4)
S6 S 0.2292(2) 0.6038(2) 0.39792(4)
S7 S 0.7034(2) -0.1679(2) 0.63568(3)
S8 S 0.1384(2) -0.0171(2) 0.62179(3)
C1 C 0.4899(6) 0.2486(5) 0.49574(11)
C2 C 0.4771(6) 0.1470(5) 0.52848(11)
C3 C 0.6146(6) 0.4017(5) 0.43657(12)
C4 C 0.3965(6) 0.4581(5) 0.43308(12)
C5 C 0.5523(6) -0.0423(5) 0.59487(11)
C6 C 0.3363(6) 0.0148(5) 0.58999(11)
C7 C 0.6240(8) 0.6352(6) 0.37826(14)
C8 C 0.4192(8) 0.6288(6) 0.36110(14)
C9 C 0.4977(8) -0.1351(6) 0.67371(13)
C10 C 0.2974(8) -0.1601(6) 0.66140(14)
S9 S 0.2584(2) 0.87902(14) -0.02708(3)
S10 S 0.7319(2) 0.75170(14) -0.02221(3)
S11 S 0.2267(2) 0.64181(14) 0.04795(3)
S12 S 0.6993(2) 0.51099(13) 0.05755(3)
S13 S 0.2295(2) 1.11592(14) -0.09673(4)
S14 S 0.7988(2) 0.9539(2) -0.09227(4)
S15 S 0.1342(2) 0.4925(2) 0.12557(4)
S16 S 0.7022(2) 0.3204(2) 0.13584(4)
C11 C 0.4888(6) 0.7453(5) -0.00191(12)
C12 C 0.4753(6) 0.6444(5) 0.03003(12)
C13 C 0.3945(6) 0.9631(5) -0.06259(11)
C14 C 0.6116(6) 0.9039(5) -0.06083(12)
C15 C 0.3313(6) 0.5181(5) 0.09227(12)
C16 C 0.5487(7) 0.4552(5) 0.09647(12)
C17 C 0.4156(7) 1.1183(6) -0.13688(13)
C18 C 0.6271(7) 1.1285(5) -0.12244(15)
C19 C 0.2936(8) 0.3312(6) 0.16138(14)
C20 C 0.5027(8) 0.3462(6) 0.17502(13)
C21 C 0.0604(8) 0.7391(6) 0.22706(13)
S17 S 0.0529(2) 0.6087(2) 0.26614(4)
O1 O 0.2257(7) 0.4637(5) 0.26288(15)
O2 O 0.0094(8) 0.6733(6) 0.30384(11)
C22 C -0.1848(10) 0.5554(7) 0.2574(2)
F1 F -0.1940(7) 0.4441(5) 0.28512(12)
F2 F -0.1806(7) 0.5071(6) 0.22149(12)
F3 F -0.3637(6) 0.6747(5) 0.2596(2)
S18 S -0.0459(2) 0.92997(14) 0.22633(3)
O3 O -0.2201(6) 0.9845(5) 0.25245(13)
O4 O -0.0631(7) 0.9983(5) 0.18430(11)
C23 C 0.1587(9) 0.9992(6) 0.2465(2)
F4 F 0.3313(6) 0.9655(5) 0.22377(11)
F5 F 0.2207(6) 0.9359(5) 0.28400(9)
F6 F 0.0781(7) 1.1528(4) 0.24704(13)
H1 H 0.70420 0.66610 0.35670
H2 H 0.58650 0.71310 0.39690
H3 H 0.35280 0.72210 0.34350
H4 H 0.45890 0.54110 0.34510
H5 H 0.45770 -0.02850 0.68000
H6 H 0.55610 -0.20300 0.69800
H7 H 0.33880 -0.26160 0.65190
H8 H 0.20920 -0.15930 0.68460
H9 H 0.34650 1.20490 -0.15670
H10 H 0.44670 1.02320 -0.14960
H11 H 0.70400 1.15040 -0.14550
H12 H 0.59240 1.21470 -0.10620
H13 H 0.32970 0.23610 0.14860
H14 H 0.21000 0.32300 0.18450
H15 H 0.47100 0.44810 0.18360
H16 H 0.56290 0.26940 0.19770
H17 H 0.13360 0.69790 0.20290
#END

data_CSD_CIF_AKAFUN
_audit_creation_date 2003-12-16
_audit_creation_method CSD-ConQuest-V1
_database_code_CSD AKAFUN
_database_code_depnum_ccdc_archive 'CCDC 192883'
_chemical_formula_sum 'C24 H16 F9 O6 S19'
_chemical_formula_moiety
;
C10 H8 S8 1+,C10 H8 S8,C4 F9 O6 S3 1-
;
_journal_coden_Cambridge 208
_journal_volume 168
_journal_year 2002
_journal_page_first 524
_journal_name_full 'J.Solid State Chem. '
loop_
_publ_author_name
"J.A.Schlueter"
"U.Geiser"
"H.H.Wang"
"A.M.Kini"
"B.H.Ward"
"J.P.Parakka"
"R.G.Daugherty"
"M.E.Kelly"
"P.G.Nixon"
"R.W.Winter"
"G.L.Gard"
"L.K.Montgomery"
"H.-J.Koo"
"M.-H.Whangbo"
_chemical_name_systematic
;
bis(Ethylenedithio)tetrathiafulvalenium tris(trifluoromethylsulfanyl)methanide
;
_cell_volume   2026.877
_exptl_crystal_colour 'black'
_exptl_crystal_density_diffrn 1.934
_exptl_crystal_description 'rod'
_diffrn_ambient_temperature 298
_refine_special_details
;
The bis(ethylenedithio)tetrathiafulvalene molecules are equally disordered 
over two sites.
;
#These two values have been output from a single CSD field.
_refine_ls_R_factor_gt 0.082
_refine_ls_wR_factor_gt 0.082
_symmetry_cell_setting triclinic
_symmetry_space_group_name_H-M 'P -1'
_symmetry_Int_Tables_number 2
loop_
_symmetry_equiv_pos_site_id
_symmetry_equiv_pos_as_xyz
1 x,y,z
2 -x,-y,-z
_cell_length_a 6.2692(4)
_cell_length_b 8.4218(6)
_cell_length_c 40.249(3)
_cell_angle_alpha 94.566(1)
_cell_angle_beta 90.949(1)
_cell_angle_gamma 106.734(1)
_cell_formula_units_Z 2
loop_
_atom_type_symbol
_atom_type_radius_bond
C 0.68
H 0.23
F 0.64
O 0.68
S 1.02
loop_
_atom_site_label
_atom_site_type_symbol
_atom_site_fract_x
_atom_site_fract_y
_atom_site_fract_z
S1 S 0.8366(4) 0.2192(4) 0.44072(6)
S2 S 0.3588(4) 0.0660(3) 0.42836(6)
S3 S 0.7512(4) 0.3363(5) 0.51615(6)
S4 S 0.2726(4) 0.1813(4) 0.50452(6)
S5 S 0.9651(4) 0.1487(4) 0.37298(6)
S6 S 0.3951(4) -0.0368(4) 0.35710(6)
S7 S 0.7231(4) 0.4523(5) 0.58654(6)
S8 S 0.1522(4) 0.2674(4) 0.57222(7)
C1 C 0.5730(14) 0.1725(12) 0.4567(2)
C2 C 0.5363(14) 0.2227(12) 0.4883(2)
C3 C 0.7449(15) 0.1316(11) 0.4005(2)
C4 C 0.5286(14) 0.0608(11) 0.3948(2)
C5 C 0.584(2) 0.3494(13) 0.5501(2)
C6 C 0.3680(14) 0.2771(11) 0.5441(2)
C7 C 0.829(2) 0.0373(13) 0.3347(2)
C8 C 0.599(2) 0.0575(14) 0.3278(2)
C9 C 0.496(2) 0.497(2) 0.6083(3)
C10 C 0.301(2) 0.359(2) 0.6097(3)
C11 C 0.3248(12) 0.4947(9) 0.2509(2)
S9 S 0.2164(4) 0.3064(3) 0.22765(6)
O1 O 0.0578(12) 0.1975(9) 0.2459(2)
O2 O 0.1696(15) 0.3315(9) 0.1940(2)
C12 C 0.442(2) 0.2092(12) 0.2224(2)
F1 F 0.6063(13) 0.3009(9) 0.2063(2)
F2 F 0.5238(10) 0.1823(8) 0.25112(14)
F3 F 0.3625(14) 0.0657(8) 0.2043(2)
S10 S 0.4073(4) 0.6783(3) 0.23260(5)
O3 O 0.357(2) 0.6548(10) 0.1976(2)
O4 O 0.3467(13) 0.8039(9) 0.2529(2)
C13 C 0.717(2) 0.7501(14) 0.2350(3)
F4 F 0.8026(13) 0.6207(12) 0.2308(3)
F5 F 0.788(2) 0.8439(14) 0.2111(2)
F6 F 0.8016(11) 0.8277(9) 0.2628(2)
S11 S 0.3321(3) 0.5012(3) 0.29324(5)
O5 O 0.4985(10) 0.6451(8) 0.30733(14)
O6 O 0.3233(12) 0.3457(9) 0.3047(2)
C14 C 0.067(2) 0.5333(14) 0.3066(2)
F7 F 0.0588(11) 0.6865(9) 0.3035(2)
F8 F -0.1039(10) 0.4314(10) 0.2913(2)
F9 F 0.0548(15) 0.5165(13) 0.3390(2)
S12 S -0.2843(7) 0.3778(8) 0.02896(10)
S13 S 0.1513(7) 0.6237(7) 0.04814(9)
S14 S -0.4414(7) 0.3440(6) 0.09694(10)
S15 S 0.0870(7) 0.6239(7) 0.12067(10)
C15 C -0.226(3) 0.435(2) 0.0718(4)
C16 C -0.026(3) 0.550(2) 0.0803(4)
C17 C -0.358(3) 0.481(3) 0.1356(5)
C18 C -0.120(4) 0.488(3) 0.1470(5)
C19 C -0.0276(14) 0.4989(10) 0.0166(2)
S16? S -0.2880(8) 0.5010(9) 0.02945(10)
S17? S 0.1553(7) 0.4807(7) 0.04784(10)
S18? S -0.4533(7) 0.4923(7) 0.09667(10)
S19? S 0.0852(7) 0.4759(7) 0.12001(10)
C20? C -0.229(3) 0.495(3) 0.0716(4)
C21? C -0.022(3) 0.483(2) 0.0804(4)
C22? C -0.358(3) 0.435(3) 0.1352(5)
C23? C -0.116(3) 0.538(3) 0.1464(4)
S20 S -0.2827(8) -0.1251(8) 0.02858(10)
S21 S 0.1477(7) 0.1215(7) 0.0483(1)
S22 S -0.4468(7) -0.1575(6) 0.09626(10)
S23 S 0.0735(7) 0.1348(6) 0.12054(9)
C24 C -0.229(3) -0.066(2) 0.0715(4)
C25 C -0.031(3) 0.052(2) 0.0805(4)
C26 C -0.369(3) -0.024(3) 0.1356(5)
C27 C -0.108(3) -0.014(3) 0.1459(5)
C28 C -0.0277(13) -0.0023(10) 0.0160(2)
S24? S -0.2945(8) -0.007(1) 0.02870(11)
S25? S 0.1564(8) -0.0202(9) 0.0481(1)
S26? S -0.4623(7) -0.0142(7) 0.09607(11)
S27? S 0.0786(7) -0.0224(7) 0.12014(10)
C29? C -0.237(3) -0.011(3) 0.0716(5)
C30? C -0.030(3) -0.018(2) 0.0798(4)
C31? C -0.359(3) -0.070(2) 0.1359(4)
C32? C -0.132(3) 0.035(2) 0.1457(4)
H1 H 0.81170 -0.07980 0.33610
H2 H 0.92280 0.07280 0.31670
H3 H 0.61490 0.17580 0.32890
H4 H 0.54780 0.01180 0.30570
H5 H 0.45070 0.58040 0.59750
H6 H 0.54660 0.54160 0.63070
H7 H 0.34880 0.27180 0.61970
H8 H 0.20000 0.38990 0.62460
C19A C 0.0276(14) 0.5011(10) -0.0166(2)
S12A S 0.2843(7) 0.6222(8) -0.02896(10)
C15A C 0.226(3) 0.565(2) -0.0718(4)
S14A S 0.4414(7) 0.6560(6) -0.09694(10)
C17A C 0.358(3) 0.519(3) -0.1356(5)
C18A C 0.120(4) 0.512(3) -0.1470(5)
S15A S -0.0870(7) 0.3761(7) -0.12067(10)
C16A C 0.026(3) 0.450(2) -0.0803(4)
S13A S -0.1513(7) 0.3763(7) -0.04814(9)
C28A C 0.0277(13) 0.0023(10) -0.0160(2)
S20A S 0.2827(8) 0.1251(8) -0.02858(10)
C24A C 0.229(3) 0.066(2) -0.0715(4)
S22A S 0.4468(7) 0.1575(6) -0.09626(10)
C26A C 0.369(3) 0.024(3) -0.1356(5)
C27A C 0.108(3) 0.014(3) -0.1459(5)
S23A S -0.0735(7) -0.1348(6) -0.12054(9)
C25A C 0.031(3) -0.052(2) -0.0805(4)
S21A S -0.1477(7) -0.1215(7) -0.0483(1)
#END

data_CSD_CIF_AQUZUH
_audit_creation_date 2004-05-12
_audit_creation_method CSD-ConQuest-V1
_database_code_CSD AQUZUH
_database_code_depnum_ccdc_archive 'CCDC 213252'
_chemical_formula_sum 'C54 H45 Ga1 N2 O13 S32'
_chemical_formula_moiety
;
H4 N1 1+,2(C10 H8 S8 1+),2(C10 H8 S8),C6 Ga1 O12 3-,C8 H9 N1 O1
;
_journal_coden_Cambridge 182
_journal_year 2004
_journal_page_first 18
_journal_name_full 'Chem.Commun. '
loop_
_publ_author_name
"H.Akutsu"
"A.Akutsu-Sato"
"S.S.Turner"
"P.Day"
"E.Canadell"
"S.Firth"
"R.J.H.Clark"
"J.Yamada"
"S.Nakatsuji"
_chemical_name_systematic
;
\a-\b''-tetrakis(4,5:4',5'-bis(Ethylenedithio)tetrathiafulvalenium) ammonium 
tris(oxalato)-gallium N-methyl-N-formylaniline solvate
;
_cell_volume   3652.453
_exptl_crystal_colour 'black'
_exptl_crystal_density_diffrn 1.842
_exptl_crystal_description 'plate'
_diffrn_ambient_temperature 298
#These two values have been output from a single CSD field.
_refine_ls_R_factor_gt 0.0532
_refine_ls_wR_factor_gt 0.0532
_symmetry_cell_setting triclinic
_symmetry_space_group_name_H-M 'P -1'
_symmetry_Int_Tables_number 2
loop_
_symmetry_equiv_pos_site_id
_symmetry_equiv_pos_as_xyz
1 x,y,z
2 -x,-y,-z
_cell_length_a 9.596(6)
_cell_length_b 11.179(5)
_cell_length_c 37.834(7)
_cell_angle_alpha 82.17(2)
_cell_angle_beta 84.53(2)
_cell_angle_gamma 65.400(13)
_cell_formula_units_Z 2
loop_
_atom_type_symbol
_atom_type_radius_bond
C 0.68
H 0.23
Ga 1.22
N 0.68
O 0.68
S 1.02
loop_
_atom_site_label
_atom_site_type_symbol
_atom_site_fract_x
_atom_site_fract_y
_atom_site_fract_z
Ga1 Ga 0.53313(5) 0.67360(5) 0.24784(1)
S1 S 0.35722(14) -0.05620(12) 0.62874(3)
S2 S 0.02058(13) 0.21415(11) 0.60411(3)
S3 S 0.38825(14) -0.09332(12) 0.55198(3)
S4 S 0.09634(13) 0.12853(12) 0.53324(3)
S5 S 0.43522(14) -0.16236(12) 0.47051(3)
S6 S 0.14414(13) 0.06090(12) 0.45245(3)
S7 S 0.52130(14) -0.23074(12) 0.39813(3)
S8 S 0.17636(14) 0.03643(11) 0.37517(3)
S9 S 0.12704(14) 0.45174(12) 0.62664(3)
S10 S 0.20231(16) 0.72957(12) 0.60146(3)
S11 S 0.17168(14) 0.41978(12) 0.54961(3)
S12 S 0.24663(15) 0.64914(12) 0.53014(3)
S13 S 0.23549(14) 0.35099(12) 0.46935(3)
S14 S 0.30829(15) 0.58069(12) 0.44829(3)
S15 S 0.26846(15) 0.27057(12) 0.39840(3)
S16 S 0.34587(16) 0.54834(12) 0.37146(3)
S17 S 0.38814(13) 0.06380(14) 0.13962(3)
S18 S -0.00841(12) 0.23189(13) 0.14909(3)
S19 S 0.32472(13) 0.08709(13) 0.06369(3)
S20 S -0.00518(12) 0.22647(12) 0.07186(3)
S21 S 0.28183(13) 0.06423(13) -0.01919(3)
S22 S -0.04800(13) 0.19746(14) -0.00886(3)
S23 S 0.27198(15) 0.00370(14) -0.09116(3)
S24 S -0.11861(15) 0.16313(16) -0.08000(3)
S25 S 0.63579(14) 0.32294(15) 0.12035(4)
S26 S 0.24064(14) 0.48375(13) 0.13144(3)
S27 S 0.56741(13) 0.32601(14) 0.04618(3)
S28 S 0.23796(13) 0.46104(14) 0.05572(3)
S29 S 0.52309(13) 0.30202(14) -0.03548(3)
S30 S 0.19411(13) 0.43992(13) -0.02563(3)
S31 S 0.51514(14) 0.26424(14) -0.10997(3)
S32 S 0.12066(13) 0.43284(13) -0.09829(3)
O1 O 0.7906(3) 0.3313(3) 0.21380(9)
O2 O 0.6851(4) 0.2927(3) 0.28258(9)
O3 O 0.6813(3) 0.5482(3) 0.21791(8)
O4 O 0.5580(3) 0.5125(3) 0.27968(7)
O5 O 0.6469(4) 0.9686(3) 0.21002(9)
O6 O 0.7392(4) 0.8740(4) 0.27989(9)
O7 O 0.5423(3) 0.8238(3) 0.21513(7)
O8 O 0.6702(3) 0.7102(3) 0.27586(8)
O9 O 0.1284(4) 0.8303(4) 0.20655(9)
O10 O 0.1163(3) 0.9149(3) 0.27293(9)
O11 O 0.3675(3) 0.6858(3) 0.21839(8)
O12 O 0.3632(3) 0.7858(3) 0.27661(8)
O13 O 0.0375(5) 0.5361(5) 0.19654(11)
N1 N 0.0840(4) 0.5409(4) 0.2528(1)
N2 N 0.8513(4) 0.0590(4) 0.23421(12)
C1 C 0.1809(6) 0.0035(5) 0.65429(11)
C2 C 0.0941(6) 0.1497(5) 0.64820(12)
C3 C 0.2843(5) 0.0000(4) 0.58626(11)
C4 C 0.1523(5) 0.1017(4) 0.57736(11)
C5 C 0.2574(5) -0.0014(4) 0.51910(11)
C6 C 0.2771(5) -0.0300(4) 0.48483(11)
C7 C 0.3862(5) -0.1253(4) 0.42582(11)
C8 C 0.2533(5) -0.0233(4) 0.41739(11)
C9 C 0.4462(5) -0.1596(5) 0.35463(12)
C10 C 0.2771(5) -0.1094(4) 0.35306(11)
C11 C 0.2230(6) 0.5181(5) 0.65158(12)
C12 C 0.1612(6) 0.6655(5) 0.64526(12)
C13 C 0.1643(5) 0.5127(4) 0.58364(11)
C14 C 0.1962(5) 0.6180(4) 0.57452(11)
C15 C 0.2235(5) 0.5165(4) 0.51626(11)
C16 C 0.2508(5) 0.4885(4) 0.48196(11)
C17 C 0.2739(5) 0.3855(4) 0.4241(1)
C18 C 0.3055(5) 0.4905(4) 0.41434(11)
C19 C 0.2911(5) 0.3419(4) 0.35364(11)
C20 C 0.4059(5) 0.4000(4) 0.35036(12)
C21 C 0.2728(6) 0.0927(7) 0.17913(14)
C22 C 0.1339(6) 0.2112(7) 0.17866(14)
C23 C 0.2522(5) 0.1186(4) 0.10700(11)
C24 C 0.1002(5) 0.1824(4) 0.11052(11)
C25 C 0.1487(5) 0.1471(4) 0.04403(11)
C26 C 0.1304(5) 0.1373(4) 0.01007(11)
C27 C 0.1693(5) 0.0737(4) -0.05413(11)
C28 C 0.0198(5) 0.1339(4) -0.04917(11)
C29 C 0.1351(7) 0.0475(8) -0.12383(15)
C30 C -0.0067(8) 0.1591(7) -0.12125(15)
C31 C 0.5256(7) 0.3308(7) 0.16050(14)
C32 C 0.3865(7) 0.4582(7) 0.16170(14)
C33 C 0.4974(5) 0.3677(4) 0.08851(11)
C34 C 0.3471(5) 0.4296(4) 0.09313(11)
C35 C 0.3904(5) 0.3878(4) 0.02731(11)
C36 C 0.3724(5) 0.3772(4) -0.00702(11)
C37 C 0.4117(5) 0.3273(4) -0.07206(11)
C38 C 0.2609(5) 0.3897(4) -0.0674(1)
C39 C 0.3664(6) 0.2854(5) -0.13869(12)
C40 C 0.2304(5) 0.4138(5) -0.13946(12)
C41 C 0.7144(4) 0.4266(4) 0.22990(11)
C42 C 0.6497(5) 0.4046(4) 0.26719(11)
C43 C 0.6212(5) 0.8770(4) 0.22640(11)
C44 C 0.6837(4) 0.8183(4) 0.26392(11)
C45 C 0.2402(5) 0.7812(4) 0.22519(11)
C46 C 0.2362(5) 0.8338(4) 0.26082(11)
C47 C 0.1629(5) 0.3999(4) 0.26045(11)
C48 C 0.3187(5) 0.3411(5) 0.25923(13)
C49 C 0.3942(6) 0.2048(6) 0.26720(15)
C50 C 0.3138(7) 0.1298(5) 0.27594(14)
C51 C 0.1568(7) 0.1904(5) 0.27720(14)
C52 C 0.0816(6) 0.3248(5) 0.26972(13)
C53 C 0.0701(6) 0.6202(5) 0.28102(15)
C54 C 0.0217(6) 0.5968(5) 0.22140(14)
H1 H 0.11950 -0.04080 0.64820
H2 H 0.20330 -0.02530 0.67920
H3 H 0.15940 0.19100 0.65280
H4 H 0.00780 0.17690 0.66530
H5 H 0.47360 -0.08460 0.34690
H6 H 0.49640 -0.22280 0.33770
H7 H 0.24420 -0.17850 0.36360
H8 H 0.24590 -0.09100 0.32820
H9 H 0.21340 0.49310 0.67660
H10 H 0.33090 0.48390 0.64480
H11 H 0.20240 0.69680 0.66240
H12 H 0.05270 0.69890 0.64940
H13 H 0.32120 0.27220 0.33810
H14 H 0.19480 0.40800 0.34670
H15 H 0.43140 0.41780 0.32530
H16 H 0.50180 0.33470 0.36050
H17 H 0.24340 0.01750 0.18560
H18 H 0.33430 0.08940 0.19830
H19 H 0.16720 0.28160 0.17230
H20 H 0.09000 0.21750 0.20220
H21 H 0.18060 0.06270 -0.14680
H22 H 0.10650 -0.02470 -0.12450
H23 H -0.06930 0.16500 -0.14070
H24 H 0.01450 0.23700 -0.12500
H25 H 0.49030 0.26170 0.16350
H26 H 0.58770 0.31910 0.18020
H27 H 0.42170 0.53060 0.15570
H28 H 0.34340 0.46690 0.18550
H29 H 0.40940 0.27190 -0.16240
H30 H 0.33020 0.21600 -0.13090
H31 H 0.16550 0.42130 -0.15840
H32 H 0.26430 0.48380 -0.14460
H33 H 0.38050 0.39420 0.25250
H34 H 0.50350 0.16300 0.26580
H35 H 0.36820 0.03120 0.28030
H36 H 0.09820 0.13450 0.28280
H37 H -0.03200 0.36580 0.27110
H38 H 0.08000 0.56980 0.30490
H39 H 0.14900 0.65410 0.27940
H40 H -0.02710 0.69620 0.28240
H41 H -0.03700 0.69840 0.21940
H42 H 0.81200 0.13960 0.24510
H43 H 0.95870 0.01650 0.23640
H44 H 0.82680 0.07770 0.20990
H45 H 0.80490 0.00300 0.24620
#END

data_CSD_CIF_ARABAW
_audit_creation_date 2004-05-12
_audit_creation_method CSD-ConQuest-V1
_database_code_CSD ARABAW
_database_code_depnum_ccdc_archive 'CCDC 213253'
_chemical_formula_sum 'C54 H43 Ga1 N2 O12 S32'
_chemical_formula_moiety
;
H4 N1 1+,2(C10 H8 S8 1+),2(C10 H8 S8),C6 Ga1 O12 3-,C8 H7 N1
;
_journal_coden_Cambridge 182
_journal_year 2004
_journal_page_first 18
_journal_name_full 'Chem.Commun. '
loop_
_publ_author_name
"H.Akutsu"
"A.Akutsu-Sato"
"S.S.Turner"
"P.Day"
"E.Canadell"
"S.Firth"
"R.J.H.Clark"
"J.Yamada"
"S.Nakatsuji"
_chemical_name_systematic
;
\a-\b''-tetrakis(4,5:4',5'-bis(Ethylenedithio)tetrathiafulvalenium) ammonium 
tris(oxalato)-gallium phenylacetonitrile solvate
;
_cell_volume   3713.570
_exptl_crystal_colour 'black'
_exptl_crystal_density_diffrn 1.795
_exptl_crystal_description 'plate'
_diffrn_ambient_temperature 298
_refine_special_details
;
A C atom from an ethylene chain is disordered over two sites with occupancies 
0.664:0.336.
;
#These two values have been output from a single CSD field.
_refine_ls_R_factor_gt 0.0673
_refine_ls_wR_factor_gt 0.0673
_symmetry_cell_setting triclinic
_symmetry_space_group_name_H-M 'P -1'
_symmetry_Int_Tables_number 2
loop_
_symmetry_equiv_pos_site_id
_symmetry_equiv_pos_as_xyz
1 x,y,z
2 -x,-y,-z
_cell_length_a 9.8240(11)
_cell_length_b 11.196(2)
_cell_length_c 37.882(10)
_cell_angle_alpha 81.469(5)
_cell_angle_beta 87.657(3)
_cell_angle_gamma 64.362(2)
_cell_formula_units_Z 2
loop_
_atom_type_symbol
_atom_type_radius_bond
C 0.68
H 0.23
Ga 1.22
N 0.68
O 0.68
S 1.02
loop_
_atom_site_label
_atom_site_type_symbol
_atom_site_fract_x
_atom_site_fract_y
_atom_site_fract_z
Ga1 Ga -0.04340(8) 0.60040(7) 0.24898(2)
S1 S 0.4845(2) -0.32288(17) 0.60436(4)
S2 S 0.1456(2) -0.07434(19) 0.62865(4)
S3 S 0.4079(2) -0.16849(18) 0.53318(4)
S4 S 0.1133(2) 0.03594(18) 0.55173(4)
S5 S 0.3593(2) -0.01890(18) 0.45227(4)
S6 S 0.0661(2) 0.18723(18) 0.47038(4)
S7 S 0.3279(2) 0.08398(17) 0.37509(4)
S8 S -0.0192(2) 0.32931(18) 0.39803(4)
S9 S 0.7094(3) -0.16812(18) 0.39976(4)
S10 S 0.6293(2) -0.41801(19) 0.37391(4)
S11 S 0.7524(2) -0.32032(18) 0.47085(4)
S12 S 0.6742(2) -0.52777(18) 0.45085(4)
S13 S 0.8139(2) -0.47042(18) 0.55244(4)
S14 S 0.7351(2) -0.67675(18) 0.53173(4)
S15 S 0.8567(3) -0.58077(19) 0.62915(4)
S16 S 0.7719(2) -0.82834(18) 0.60287(4)
S17 S 0.2668(2) -0.11281(19) 0.13333(4)
S18 S -0.1267(2) 0.0664(2) 0.12351(5)
S19 S 0.26542(19) -0.01936(18) 0.05682(4)
S20 S -0.0638(2) 0.12960(19) 0.04831(4)
S21 S 0.30367(19) 0.08098(18) -0.02496(4)
S22 S -0.02510(19) 0.23159(19) -0.03402(4)
S23 S 0.3724(2) 0.16335(19) -0.09806(4)
S24 S -0.0211(2) 0.3462(2) -0.10851(4)
S25 S 0.50598(19) 0.12602(18) 0.14971(4)
S26 S 0.1096(2) 0.29700(19) 0.13917(4)
S27 S 0.50455(19) 0.20480(18) 0.07255(4)
S28 S 0.17558(19) 0.34895(18) 0.06306(4)
S29 S 0.54888(19) 0.31035(18) -0.00834(4)
S30 S 0.2198(2) 0.45147(19) -0.01980(4)
S31 S 0.6198(2) 0.4139(2) -0.07952(5)
S32 S 0.2313(2) 0.58022(19) -0.09222(4)
O1 O -0.1428(6) 0.3309(5) 0.21318(13)
O2 O -0.2770(7) 0.3926(6) 0.27852(13)
O3 O -0.0477(5) 0.4773(4) 0.2173(1)
O4 O -0.1873(5) 0.5455(4) 0.2757(1)
O5 O -0.1890(5) 0.7587(4) 0.21912(11)
O6 O -0.0649(5) 0.7300(4) 0.28093(11)
O7 O -0.3015(5) 0.9812(4) 0.21546(12)
O8 O -0.1901(6) 0.9511(5) 0.28366(12)
O9 O 0.3566(5) 0.4703(5) 0.20738(12)
O10 O 0.3725(6) 0.3315(5) 0.27545(13)
O11 O 0.1225(5) 0.6128(4) 0.2196(1)
O12 O 0.1261(5) 0.4588(4) 0.2787(1)
N1 N 0.5318(9) -0.3310(8) 0.19476(18)
N2 N 0.6375(6) 0.2372(6) 0.23481(16)
C1 C 0.410(1) -0.3034(8) 0.64847(17)
C2 C 0.3208(11) -0.1659(8) 0.65440(18)
C3 C 0.3518(8) -0.1851(6) 0.57748(15)
C4 C 0.2193(8) -0.0915(6) 0.58598(14)
C5 C 0.2451(8) -0.0234(7) 0.51909(15)
C6 C 0.2262(8) 0.0405(7) 0.48476(15)
C7 C 0.2512(9) 0.1000(7) 0.41735(15)
C8 C 0.1164(8) 0.1955(6) 0.42552(15)
C9 C 0.0577(9) 0.2999(7) 0.35400(16)
C10 C 0.2240(8) 0.2514(7) 0.35327(15)
C11 C 0.678(1) -0.1917(8) 0.35521(17)
C12 C 0.726(1) -0.3275(8) 0.34957(18)
C13 C 0.7004(8) -0.3056(6) 0.42614(15)
C14 C 0.6685(7) -0.4009(7) 0.41737(15)
C15 C 0.7309(7) -0.4669(6) 0.48447(15)
C16 C 0.7548(7) -0.5286(6) 0.51891(15)
C17 C 0.8126(7) -0.5945(6) 0.58611(15)
C18 C 0.7781(7) -0.6882(6) 0.57690(15)
C19 C 0.796(1) -0.8023(7) 0.64725(17)
C20 C 0.1238(12) -0.1250(11) 0.1619(2)
C21 C -0.0148(12) 0.0010(13) 0.1631(2)
C22 C 0.0092(7) 0.0504(7) 0.09116(16)
C23 C 0.1576(8) -0.0183(6) 0.09491(14)
C24 C 0.1117(7) 0.0841(6) 0.02906(15)
C25 C 0.1270(7) 0.1294(6) -0.00604(16)
C26 C 0.2347(7) 0.1740(6) -0.06669(15)
C27 C 0.0823(8) 0.2436(6) -0.07067(15)
C28 C 0.2588(8) 0.2147(7) -0.13866(16)
C29 C 0.1226(8) 0.3471(7) -0.13892(17)
C30 C 0.364(1) 0.123(1) 0.18018(19)
C31 C 0.2242(9) 0.241(1) 0.17847(19)
C32 C 0.3989(7) 0.2089(6) 0.11055(15)
C33 C 0.2482(7) 0.2751(6) 0.10633(15)
C34 C 0.3513(7) 0.3065(6) 0.04378(15)
C35 C 0.3713(7) 0.3510(6) 0.00965(15)
C36 C 0.3319(8) 0.4759(7) -0.05438(15)
C37 C 0.4821(8) 0.4124(6) -0.04941(14)
C38 C 0.5146(13) 0.4688(13) -0.1200(2)
C39 C 0.3711(12) 0.5459(16) -0.1246(2)
C40 C -0.1262(7) 0.4150(6) 0.22852(15)
C41 C -0.2035(7) 0.4512(6) 0.26387(16)
C42 C -0.2228(7) 0.8682(6) 0.23112(16)
C43 C -0.1559(7) 0.8528(7) 0.26848(15)
C44 C 0.2472(8) 0.5064(6) 0.22623(15)
C45 C 0.2536(7) 0.4240(6) 0.26324(15)
C46 C 0.3394(8) -0.1634(7) 0.26348(16)
C47 C 0.1857(9) -0.0965(8) 0.26078(18)
C48 C 0.1155(9) 0.0369(9) 0.2658(2)
C49 C 0.2002(12) 0.1007(7) 0.2740(2)
C50 C 0.3536(11) 0.0329(8) 0.2767(2)
C51 C 0.4247(8) -0.0997(8) 0.27171(19)
C52 C 0.420(1) -0.3090(8) 0.2573(2)
C53 C 0.4818(9) -0.3233(7) 0.2225(2)
C54? C 0.771(2) -0.6618(19) 0.6560(5)
C55 C 0.8950(15) -0.7487(12) 0.6510(2)
H1 H 0.35430 -0.35160 0.65350
H2 H 0.49510 -0.33620 0.66490
H3 H 0.37560 -0.11790 0.65020
H4 H 0.29000 -0.17080 0.67880
H5 H 0.03080 0.23620 0.34680
H6 H 0.01170 0.38260 0.33880
H7 H 0.25260 0.30830 0.36430
H8 H 0.25270 0.25400 0.32890
H9 H 0.72460 -0.15100 0.33940
H10 H 0.56760 -0.14270 0.35080
H11 H 0.70590 -0.32430 0.32510
H12 H 0.82560 -0.37290 0.35590
H13 H 0.85000 -0.88930 0.66090
H14 H 0.70020 -0.75930 0.65660
H15 H 0.09410 -0.18720 0.15370
H16 H 0.16580 -0.15770 0.18510
H17 H 0.01670 0.06620 0.16820
H18 H -0.07360 -0.01530 0.18170
H19 H 0.32120 0.22190 -0.15820
H20 H 0.22660 0.14860 -0.14120
H21 H 0.08250 0.37410 -0.16240
H22 H 0.15940 0.40850 -0.13300
H23 H 0.34490 0.05270 0.17730
H24 H 0.40590 0.11380 0.20340
H25 H 0.24500 0.31180 0.18230
H26 H 0.16640 0.22110 0.19660
H27 H 0.55960 0.51500 -0.13470
H28 H 0.52720 0.38980 -0.12840
H29 H 0.33690 0.50880 -0.14150
H30 H 0.36290 0.63070 -0.13480
H31 H 0.12490 -0.13950 0.25500
H32 H 0.00790 0.08940 0.26320
H33 H 0.15380 0.19010 0.27790
H34 H 0.41260 0.07710 0.28240
H35 H 0.53250 -0.14720 0.27320
H36 H 0.49590 -0.35930 0.27510
H37 H 0.34550 -0.34620 0.25960
H38 H 0.72850 0.20010 0.24870
H39 H 0.63260 0.17130 0.22250
H40 H 0.63390 0.31070 0.21810
H41 H 0.55360 0.26770 0.25010
H42? H 0.79750 -0.66370 0.67920
H43 H 0.99360 -0.81000 0.64170
H44? H 0.66160 -0.59970 0.65220
H45 H 0.91490 -0.75400 0.67590
#END
